                   x                  sxy                  sxz                  syz                  sxx                  syy                  szz
 l=         100
                   1     0.00066451845584     0.00036921424689    -0.00017162960692     0.37751334037011     0.14782337402506     0.47466328560484
                   2    -0.00004354332873    -0.00110841858033    -0.00039961389202     0.40426015964286     0.13118040095820     0.46455943939894
                   3    -0.00008082790287     0.00060772745493    -0.00068016120476     0.38825288710822     0.14458519338160     0.46716191951018
                   4    -0.00064730327836    -0.00024142930462    -0.00008983250292     0.39036082341577     0.14351290162255     0.46612627496168
                   5     0.00035928000259     0.00079988273741    -0.00013779217105     0.38578109220495     0.14764556139660     0.46657334639846
                   6    -0.00012677762764     0.00018308643396    -0.00014555756874     0.38589419274880     0.14787036023760     0.46623544701360
                   7     0.00049719254913    -0.00062322967277    -0.00052603975555     0.38720231139747     0.14753121601842     0.46526647258411
                   8    -0.00099521523005     0.00034072946524    -0.00030291524243     0.38923936415007     0.14611513633777     0.46464549951215
                   9    -0.00013943506079     0.00037073798266     0.00002659997016     0.38206767935238     0.15289179159829     0.46504052904932
                  10    -0.00042690390819    -0.00109193996336    -0.00054709887135     0.37960752137262     0.15483760763187     0.46555487099551
                  11     0.00031443413709     0.00065781734014    -0.00036685558763     0.40153890725190     0.13031719289475     0.46814389985336
                  12    -0.00061345165558    -0.00006342622330    -0.00019075823980     0.39687376140600     0.13315049177674     0.46997574681726
                  13    -0.00005518742470     0.00040076985212    -0.00029218429041     0.40346599958290     0.12665094711672     0.46988305330037
                  14    -0.00006531358928    -0.00068533440319     0.00016807549225     0.40476832112597     0.12602799248642     0.46920368638761
                  15     0.00022136168136     0.00042359179503    -0.00046163801580     0.39381415061161     0.13725047894090     0.46893537044749
                  16    -0.00033712397440    -0.00026569922041    -0.00006420776658     0.39324553484096     0.13777976853847     0.46897469662057
                  17     0.00003569768756    -0.00021635505684     0.00028822312637     0.40796141420884     0.12033795775927     0.47170062803189
                  18    -0.00044046577810     0.00065993139464    -0.00018553432252     0.40871423077412     0.12041864732150     0.47086712190438
                  19     0.00011670354838    -0.00021894274086     0.00022726214677     0.38145388837816     0.15242461108867     0.46612150053317
                  20    -0.00053040914388     0.00040795491373    -0.00010826566372     0.38690394590398     0.14906552185626     0.46403053223976
                  21     0.00017412734650     0.00016987928058     0.00007100498601     0.38192788149069     0.15302125811706     0.46505086039225
                  22    -0.00058701511063    -0.00069610193151    -0.00008389874304     0.38182908190544     0.15334412156121     0.46482679653335
                  23     0.00003010151223    -0.00053014770983     0.00085145687818     0.38800341477479     0.14733761202717     0.46465897319804
                  24    -0.00044486563910     0.00023255167776     0.00023386321589     0.38712915386962     0.14808010749894     0.46479073863144
                  25     0.00070581557641    -0.00134810470171     0.00011799553450     0.38836336363699     0.14622696703377     0.46540966932924
                  26    -0.00062734487668     0.00141926182039     0.00101126546262     0.38923247208620     0.14591711184842     0.46485041606538
                  27     0.00060947261676     0.00153154732771    -0.00004964550334     0.39439763673375     0.13910249003062     0.46649987323562
                  28    -0.00006821880755    -0.00021223637734     0.00013236090184     0.39048921428131     0.14219264345093     0.46731814226776
                  29     0.00025086088818     0.00028885521225    -0.00028811268011     0.39857842745998     0.13274053543287     0.46868103710715
                  30    -0.00058352403663     0.00100021974426    -0.00024758738501     0.39964526042655     0.13208223546849     0.46827250410497
                  31     0.00070887850212    -0.00026442008298     0.00029666536120     0.37797978261966     0.15705568690086     0.46496453047947
                  32    -0.00021572233647    -0.00084551440487     0.00001595806929     0.38184279765907     0.15421817408506     0.46393902825587
                  33     0.00048670328188    -0.00019359888163     0.00031442987682     0.38125511251780     0.15307110032959     0.46567378715262
                  34    -0.00044809420672     0.00051997019800     0.00045265671153     0.38171797157199     0.15252562997014     0.46575639845787
                  35    -0.00011648893012    -0.00038118907641    -0.00008528687996     0.38147262234867     0.15359515112670     0.46493222652464
                  36     0.00013301071559    -0.00013493204210     0.00015222440122     0.37913551299695     0.15563994599309     0.46522454100996
                  37     0.00023418622561     0.00039056728590    -0.00001883417792     0.38563594691143     0.14904181239707     0.46532224069150
                  38    -0.00051647283375    -0.00052137350364    -0.00043327417136     0.38703112172675     0.14817188161142     0.46479699666183
                  39     0.00003119680746    -0.00218302790817     0.00043254575221     0.37442501640925     0.16278023179439     0.46279475179636
                  40    -0.00023036321694     0.00197429193123    -0.00039250301984     0.37370733058501     0.16324119775081     0.46305147166418
                  41     0.00028226050736    -0.00109165108731    -0.00041042500225     0.39245632196525     0.14123110904911     0.46631256898564
                  42    -0.00080502693557     0.00024411474708     0.00050316156153     0.39066773403124     0.14257068713460     0.46676157883416
                  43     0.00022377445420     0.00068271514437    -0.00050719912741     0.38168628426051     0.15255233106327     0.46576138467622
                  44    -0.00026145801674    -0.00093683359006    -0.00029867853881     0.38452632226867     0.15056946222543     0.46490421550590
                  45     0.00017347420220    -0.00051989099328     0.00065752812677     0.37236306453698     0.16334092046548     0.46429601499754
                  46    -0.00040615972717     0.00012695768926     0.00060921387055     0.37332922469342     0.16299728321314     0.46367349209344
                  47     0.00034893629488     0.00056532992910    -0.00008007712758     0.37803368813309     0.15849169700286     0.46347461486405
                  48    -0.00042174239972    -0.00007086090904    -0.00018076744853     0.37933451323810     0.15780320521517     0.46286228154673
                  49     0.00038170229469     0.00075507743533    -0.00030258198213     0.36922944842708     0.16864600390588     0.46212454766704
                  50     0.00016447332960    -0.00011796982701     0.00017280342759     0.37246700972404     0.16625186023919     0.46128113003676
                  51    -0.00000381973498    -0.00101707327825    -0.00043018113360     0.36518231495972     0.17400856768198     0.46080911735830
                  52     0.00011464842172     0.00195858684005    -0.00004489051321     0.36283175785468     0.17612468476168     0.46104355738364
                  53     0.00009523975919    -0.00240239385553     0.00010370580605     0.38341595450267     0.15251696199102     0.46406708350630
                  54    -0.00024459879592     0.00140936855214     0.00043317612965     0.38326576813865     0.15338097684060     0.46335325502076
                  55     0.00007143002903    -0.00040476329971     0.00024552729217     0.38526231353323     0.14947180436226     0.46526588210450
                  56    -0.00083454081719     0.00090234965196     0.00001845403010     0.38659210826174     0.14877128211795     0.46463660962031
                  57     0.00073410380167     0.00059634822118     0.00045614171337     0.36472210089443     0.17588241304891     0.45939548605666
                  58    -0.00011609496573     0.00019309102115    -0.00014947281517     0.36818096525932     0.17346120323398     0.45835783150669
                  59    -0.00002284615454    -0.00121429596132     0.00033206256697     0.36485600368313     0.17570914059722     0.45943485571964
                  60    -0.00091376732838     0.00088856675521    -0.00013937845820     0.36310692397864     0.17714012427471     0.45975295174665
                  61     0.00005781920864     0.00044425925665    -0.00004564476959     0.37780553759735     0.15975552539648     0.46243893700617
                  62    -0.00070103169122    -0.00174576715206     0.00057742946093     0.37226409962775     0.16452417014821     0.46321173022405
                  63     0.00016518043253     0.00093459342273     0.00046309162238     0.38069983858270     0.15586358697856     0.46343657443873
                  64    -0.00038752018781    -0.00044699973905     0.00018997588049     0.38000240189357     0.15656213606619     0.46343546204024
                  65    -0.00066316613534    -0.00053961606479     0.00026644986693     0.38998452576266     0.14413102937802     0.46588444485932
                  66    -0.00023628389121     0.00096760405280     0.00039913829934     0.38284005332191     0.14981347293912     0.46734647373898
                  67    -0.00007771648305    -0.00019425335904     0.00030758200363     0.40937383790583     0.12002586976427     0.47060029232989
                  68    -0.00011164749017    -0.00003810855748     0.00018694690911     0.40646369046063     0.12221150000233     0.47132480953704
                  69     0.00010588504132     0.00046223943300     0.00047367265366     0.40105424618313     0.12881648280082     0.47012927101605
                  70    -0.00047256555678     0.00061821805379    -0.00008431952540     0.40070533417710     0.12932713244675     0.46996753337614
                  71    -0.00009966038973    -0.00038340835441    -0.00050831597553     0.41330614918967     0.11367673909739     0.47301711171293
                  72    -0.00042648465024    -0.00024510969077    -0.00039015380106     0.41162267062422     0.11477579434935     0.47360153502643
                  73     0.00028686144862     0.00066311351358    -0.00013001510971     0.41842476262125     0.10638783528633     0.47518740209243
                  74    -0.00062913313382     0.00039181144331    -0.00003711935907     0.41997173919146     0.10606597091372     0.47396228989482
                  75     0.00069041137357     0.00113415534560     0.00028317604287     0.40181563407596     0.12781579456850     0.47036857135554
                  76    -0.00042391634878    -0.00149821351681     0.00021092437869     0.40276575366085     0.12709444030484     0.47013980603431
                  77     0.00064825241665     0.00137383072218    -0.00012251424541     0.40952513709621     0.11858693791403     0.47188792498976
                  78    -0.00029027204517    -0.00030310674071    -0.00003088292096     0.40987367964620     0.11851068997346     0.47161563038035
                  79     0.00035748737750    -0.00133265934568    -0.00061910692614     0.39592944861462     0.13470640253268     0.46936414885270
                  80    -0.00040967740196    -0.00049064030437    -0.00008873488828     0.39931360461592     0.13235726066084     0.46832913472325
                  81    -0.00035844767869     0.00052649818758     0.00038810464630     0.39568144654396     0.13673776457384     0.46758078888220
                  82    -0.00050770303153     0.00041813910529    -0.00023593549571     0.39548573812741     0.13692120458029     0.46759305729231
                  83    -0.00032387642073    -0.00045319739733     0.00038387183079     0.40245815070813     0.12863366673318     0.46890818255869
                  84    -0.00038258789264     0.00007463141515    -0.00065873359652     0.39814871157979     0.13128332312215     0.47056796529805
                  85     0.00004183223025    -0.00117165295947     0.00031025289955     0.41776426095782     0.10928490464724     0.47295083439494
                  86    -0.00065649704620     0.00087488719720    -0.00018064311004     0.41271368838605     0.11251393280077     0.47477237881318
                  87     0.00013905564992     0.00001215713476     0.00039166762487     0.43405754894225     0.08757399206079     0.47836845899695
                  88    -0.00085802706701    -0.00020119021506     0.00061352344234     0.43206430124563     0.08963750385963     0.47829819489474
                  89     0.00004439130719    -0.00056302979467    -0.00037750330519     0.43558472308472     0.08441826467592     0.47999701223936
                  90    -0.00111234704099    -0.00043420552124    -0.00052050827210     0.43570820793014     0.08551730860178     0.47877448346808
                  91     0.00011194036358    -0.00000148800215     0.00011927347451     0.42752485373993     0.09460696034530     0.47786818591478
                  92    -0.00056153218974     0.00018054531285     0.00002327215604     0.42956132361427     0.09371558061917     0.47672309576656
                  93     0.00042903294478     0.00095619558468     0.00023902615728     0.41633733870122     0.10876353600254     0.47489912529624
                  94    -0.00057426415041    -0.00172049850292     0.00071882026431     0.41888133473860     0.10764430091589     0.47347436434551
                  95     0.00046319193023     0.00110217007664    -0.00026530557802     0.41344881222593     0.11302908808156     0.47352209969251
                  96    -0.00069022646335    -0.00037834913104     0.00001736148467     0.41542914119185     0.11181920485272     0.47275165395543
                  97     0.00020399938546    -0.00108387846795     0.00002182228369     0.41330143777361     0.11412988777239     0.47256867445401
                  98    -0.00059784358817     0.00058051783268     0.00030228569369     0.41139780926685     0.11626219383817     0.47233999689498
                  99    -0.00009024366759     0.00047638902975     0.00006836664469     0.41905438012273     0.10673003561118     0.47421558426609
                 100    -0.00064874726221     0.00002961028636     0.00004061998962     0.41705840580991     0.10829567062000     0.47464592357009
                 101     0.00029133951389     0.00044640431771    -0.00006587012794     0.42853094627215     0.09416543730721     0.47730361642063
                 102    -0.00139883064868    -0.00038230908206     0.00023550136585     0.42635163116425     0.09610126643324     0.47754710240252
                 103    -0.00001602014937    -0.00006137983122     0.00001177709237     0.43562200340971     0.08524369977260     0.47913429681769
                 104    -0.00074560861461     0.00028792885279    -0.00002873066368     0.43463152925474     0.08621594388331     0.47915252686195
                 105     0.00052899840979     0.00043524334736    -0.00005274319535     0.43147127471479     0.08938952747505     0.47913919781017
                 106    -0.00128931781366    -0.00028756444965     0.00015755855976     0.43244428648209     0.08984043834408     0.47771527517383
                 107     0.00051095741307     0.00023854907829    -0.00022592627841     0.42985900995968     0.09137208187909     0.47876890816123
                 108    -0.00122611775041    -0.00064735620627     0.00021256912173     0.42832463318098     0.09348768165402     0.47818768516500
                 109     0.00018666351527     0.00016976989921     0.00035676856141     0.44181712410804     0.07659050154611     0.48159237434585
                 110    -0.00126692848491    -0.00022084271868     0.00039565599570     0.44141880670219     0.07798606513932     0.48059512815849
                 111     0.00007249861012     0.00038497831119     0.00018277441857     0.43531414812064     0.08447137763344     0.48021447424593
                 112    -0.00113511308846     0.00039881664487     0.00013545846708     0.43765976493479     0.08402797191773     0.47831226314748
                 113     0.00053044706117    -0.00032896123533     0.00023524970177     0.42593100243329     0.09701777968916     0.47705121787755
                 114    -0.00147898541879    -0.00018912292353    -0.00027472371849     0.42602869341407     0.09793496156894     0.47603634501699
                 115     0.00029505898508     0.00068325660225     0.00000205510472     0.43685022827440     0.08387877186776     0.47927099985784
                 116    -0.00127367696313    -0.00038872484173     0.00024976274469     0.43555514974196     0.08569069637948     0.47875415387857
                 117     0.00043148229234    -0.00079441354464     0.00023620528048     0.43284947503545     0.08828976693342     0.47886075803114
                 118    -0.00118063712057     0.00046581811276    -0.00025490390460     0.43378268900783     0.08852781112618     0.47768949986599
                 119     0.00066967834782     0.00018516587732    -0.00055803700382     0.42217297333719     0.10114966307876     0.47667736358405
                 120    -0.00103852605675    -0.00056143067255     0.00012869874492     0.42329388502374     0.10133901838542     0.47536709659084
                 121     0.00019351279454     0.00037113890786     0.00032807410914     0.42824472451278     0.09444913457847     0.47730614090874
                 122    -0.00115209125537     0.00009426648863     0.00022501694562     0.42758363768091     0.09573019453956     0.47668616777953
                 123     0.00013105206011    -0.00115168891166     0.00005901165764     0.43633638100499     0.08461825327808     0.47904536571694
                 124    -0.00165212201769    -0.00016540131619    -0.00004152377481     0.43397547300811     0.08707824327271     0.47894628371918
                 125     0.00021968338534     0.00065262104282     0.00047916719370     0.43661982444732     0.08363399665374     0.47974617889894
                 126    -0.00181420422022    -0.00017546677789    -0.00010442282670     0.43639028448163     0.08528841023105     0.47832130528731
                 127     0.00019495916344     0.00045531428460     0.00015815596967     0.44283919675552     0.07544409193981     0.48171671130468
                 128    -0.00160910237133     0.00001733055704     0.00036964932306     0.44117773967013     0.07779822940009     0.48102403092978
                 129     0.00054586728188     0.00040991330574    -0.00022265729482     0.44692044351150     0.07019590024279     0.48288365624571
                 130    -0.00195910779343    -0.00034119321147    -0.00019211912468     0.44765468989450     0.07094994520511     0.48139536490039
                 131    -0.00013641074887    -0.00046975675771     0.00019220707585     0.43187585347012     0.08860561753935     0.47951852899053
                 132    -0.00095649728782     0.00011860689126     0.00040024496723     0.43267617381816     0.08900257889830     0.47832124728354
                 133     0.00013943907874     0.00008986054046     0.00039587623392     0.44666102950335     0.07079536427176     0.48254360622490
                 134    -0.00158482590037     0.00054900848430     0.00011159403399     0.44454376523124     0.07345634219086     0.48199989257790
                 135     0.00031282409667    -0.00004123417451     0.00001907649026     0.45493361717734     0.06019573692112     0.48487064590154
                 136    -0.00204492149123    -0.00010365761427     0.00047127281719     0.45313432521970     0.06317995437719     0.48368572040312
                 137     0.00035932343001    -0.00019435303112     0.00004305876712     0.46451016512318     0.04797731389041     0.48751252098640
                 138    -0.00290018223646     0.00047322283118     0.00019774458557     0.46210324500643     0.05225326843459     0.48564348655897
                 139     0.00011307697164     0.00003742606303    -0.00016238082589     0.46756667266337     0.04296984811704     0.48946347921959
                 140    -0.00290230606833     0.00009224765852    -0.00003674485442     0.46766388980157     0.04589394999279     0.48644216020564
                 141     0.00025633918462     0.00033646241685    -0.00014456515375     0.45556983356436     0.05774932299091     0.48668084344473
                 142    -0.00292111779115    -0.00018096490051    -0.00005544527728     0.45712518396661     0.05917954643916     0.48369526959423
                 143     0.00034416127950    -0.00063969719712     0.00051966018428     0.45667877055151     0.05699701464794     0.48632421480055
                 144    -0.00303139924460     0.00052895522628     0.00005302059162     0.45704015490258     0.05891859063842     0.48404125445900
                 145    -0.00000212734291     0.00009404882213    -0.00011372658131     0.45774308864697     0.05595922505493     0.48629768629811
                 146    -0.00275859890555     0.00010956171240     0.00017581941853     0.45673128210192     0.05908124622891     0.48418747166917
                 147     0.00026115408572    -0.00053509395969    -0.00001491649711     0.45851975462786     0.05454338644989     0.48693685892225
                 148    -0.00285297250971     0.00037417327624    -0.00001807040049     0.45838672420340     0.05742740730665     0.48418586848995
                 149     0.00019739613272     0.00011063216174    -0.00030739978490     0.46355911392633     0.04842759677182     0.48801328930185
                 150    -0.00278103846392    -0.00024353580725     0.00002393793524     0.46292576770263     0.05142605287298     0.48564817942439
                 151     0.00014251724267    -0.00014184396473    -0.00024275732704     0.46415475236079     0.04736456036974     0.48848068726947
                 152    -0.00314745206000     0.00052066180123    -0.00004300883089     0.46321769412178     0.05085829127642     0.48592401460180
                 153     0.00013591761723     0.00013179281550    -0.00008699963632     0.46999878101805     0.04006695709773     0.48993426188421
                 154    -0.00348160247274    -0.00027575501018     0.00008326260673     0.46910632013883     0.04338350560174     0.48751017425944
                 155     0.00031462473973    -0.00030771220323    -0.00020673896816     0.47160249596486     0.03736751867022     0.49102998536492
                 156    -0.00362910900078     0.00060401993178    -0.00003574782458     0.47118566591860     0.04080089128203     0.48801344279937
                 157    -0.00008710307562     0.00025947382584     0.00001072600235     0.47592252089499     0.03200300820789     0.49207447089712
                 158    -0.00372127009776    -0.00031456124583    -0.00008530581957     0.47507661272789     0.03607302685346     0.48885036041866
                 159    -0.00000312164750    -0.00005272456333     0.00026462044387     0.47856915589147     0.02837603505360     0.49305480905493
                 160    -0.00382863913208    -0.00015885972855     0.00000105838653     0.47780188882406     0.03262424834538     0.48957386283056
                 161     0.00002287306852    -0.00013352316649     0.00002221819353     0.48313737281523     0.02249938844851     0.49436323873626
                 162    -0.00434050238091     0.00003778081013     0.00016509782281     0.48203254408000     0.02748060970405     0.49048684621595
                 163    -0.00001004594112     0.00027644967335     0.00001180035780     0.48699350487685     0.01703560194145     0.49597089318170
                 164    -0.00480733308606    -0.00005792074942    -0.00005340321173     0.48691795231510     0.02179791807228     0.49128412961262
                 165     0.00015437268134    -0.00028061816042    -0.00012069142468     0.48709347819479     0.01704883717778     0.49585768462743
                 166    -0.00473523978977     0.00011097844031     0.00003161835766     0.48656638971986     0.02210313543265     0.49133047484750
                 167     0.00011963574390    -0.00001248422503     0.00000103618085     0.49021150347325     0.01302079514301     0.49676770138373
                 168    -0.00496774733105     0.00014044013134    -0.00009222618329     0.48982835050151     0.01815961219763     0.49201203730086
                 169     0.00007319121347    -0.00004755846758     0.00002635936117     0.49047315588768     0.01282122375501     0.49670562035731
                 170    -0.00472223720118     0.00005587922693    -0.00004268497801     0.49033727657274     0.01768995670600     0.49197276672127
                 171     0.00012523015392    -0.00025911897008     0.00009714230521     0.49091959876099     0.01198059206712     0.49709980917189
                 172    -0.00492648930544     0.00005756885392    -0.00006935337141     0.49081015157565     0.01690589486324     0.49228395356111
                 173     0.00007562487495    -0.00000105725596     0.00007943983890     0.49305231566770     0.00948731846749     0.49746036586481
                 174    -0.00495766885379    -0.00006240538988    -0.00000138523286     0.49300645986133     0.01444947830361     0.49254406183507
                 175     0.00007840447802    -0.00005238235320     0.00006174707096     0.49219879276339     0.01046245510267     0.49733875213394
                 176    -0.00517105668353     0.00023739964834     0.00010930054326     0.49205989588178     0.01569710174257     0.49224300237565
                 177     0.00020806562810    -0.00020149513416     0.00001801752505     0.49354327863278     0.00892983644320     0.49752688492403
                 178    -0.00496288026836     0.00013175471699     0.00005863535556     0.49309227062627     0.01410390076205     0.49280382861168
                 179     0.00011895993940     0.00004340769205     0.00005756757945     0.49688499939290     0.00443945766448     0.49867554294262
                 180    -0.00521251475220    -0.00010917524330    -0.00002114649132     0.49669921593351     0.00972343325033     0.49357735081616
                 181     0.00014050162908    -0.00006728892102    -0.00002914009491     0.49630057175080     0.00521092010091     0.49848850814828
                 182    -0.00500868202146    -0.00008535260232    -0.00004198338625     0.49606776472200     0.01035380548805     0.49357842978995
                 183     0.00004682718946     0.00020746075964    -0.00001214691704     0.49790653283496     0.00297700958303     0.49911645758201
                 184    -0.00533993899235    -0.00009500647952    -0.00004888122635     0.49782719830930     0.00828659673609     0.49388620495461
                 185     0.00012415421979    -0.00005064000622    -0.00013316731119     0.49773136368689     0.00311685430678     0.49915178200633
                 186    -0.00527008699069    -0.00000694914469    -0.00003017179869     0.49794540000942     0.00817356523356     0.49388103475702
                 187     0.00011035760709    -0.00012113101156     0.00000277825725     0.49543892452212     0.00607494239354     0.49848613308434
                 188    -0.00509016447717    -0.00001352324176     0.00007354493116     0.49575960154708     0.01093852509116     0.49330187336176
                 189     0.00002286795250     0.00004368016144     0.00010994088844     0.49288109464633     0.00933501831335     0.49778388704032
                 190    -0.00502462313138    -0.00005272074252    -0.00004232227814     0.49329569463458     0.01411260432094     0.49259170104448
                 191     0.00008603993498     0.00010187955631     0.00012519628169     0.49285333699386     0.00947305247634     0.49767361052980
                 192    -0.00489214623231     0.00013358203671     0.00000205393474     0.49289395417249     0.01460106511790     0.49250498070961
                 193     0.00007667026808     0.00011171060890     0.00001318136377     0.49207275584071     0.01048235114953     0.49744489300976
                 194    -0.00502323888690    -0.00016058880499     0.00000831900829     0.49224266471318     0.01544219372290     0.49231514156392
                 195     0.00007632189379     0.00005304247457     0.00001876513471     0.49044194132569     0.01258125085234     0.49697680782196
                 196    -0.00495487160981     0.00009750627217     0.00001179731215     0.49007425088561     0.01785657709144     0.49206917202295
                 197     0.00000346957116    -0.00025596978606     0.00010194723221     0.49385721889714     0.00828125749610     0.49786152360676
                 198    -0.00509639454668     0.00019037706719     0.00013350642620     0.49380010007274     0.01343376231768     0.49276613760958
                 199     0.00002777405189     0.00026878430430    -0.00007041861362     0.49366530461915     0.00863348872117     0.49770120665968
                 200    -0.00507141399095    -0.00012551799218     0.00002772650034     0.49362393339703     0.01355184665919     0.49282421994377
                 201     0.00009780838147    -0.00027259597347     0.00030237948817     0.49262265247716     0.01018673711372     0.49719061040912
                 202    -0.00447328822622    -0.00007565842918    -0.00002953254109     0.49269622340916     0.01439540831011     0.49290836828072
                 203     0.00039816969716     0.00003813729917    -0.00002634251453     0.49296322396169     0.00965013560845     0.49738664042986
                 204    -0.00490801485675    -0.00002148887990     0.00025177422494     0.49266799492321     0.01471641347912     0.49261559159767
                 205     0.00003573344229     0.00002677370560    -0.00005100952251     0.49621551253621     0.00531754256289     0.49846694490091
                 206    -0.00503951374606    -0.00014702440104    -0.00008703499567     0.49626367928695     0.01043746634469     0.49329885436836
                 207    -0.00000413799166     0.00010786439209    -0.00001942813381     0.49348741274241     0.00866124983193     0.49785133742566
                 208    -0.00498576897587    -0.00034871124070     0.00000276640631     0.49379804988784     0.01338157330807     0.49282037680409
                 209     0.00007003480491    -0.00009052805493    -0.00007559271003     0.49394903646964     0.00837315273909     0.49767781079127
                 210    -0.00510301025905     0.00005723152508    -0.00009224991807     0.49387833437781     0.01348395926478     0.49263770635741
                 211     0.00011304019274     0.00013179625015    -0.00002533384822     0.49439228802532     0.00765483941912     0.49795287255556
                 212    -0.00517551687063    -0.00007665020489    -0.00002810509753     0.49412290950671     0.01288869431090     0.49298839618239
                 213     0.00005272336413     0.00031866405687     0.00000867703200     0.49585010970200     0.00583621327110     0.49831367702690
                 214    -0.00503675314108     0.00004166029368     0.00001354563222     0.49547953869420     0.01098182450517     0.49353863680063
                 215     0.00002566929629    -0.00015814755075    -0.00005306702396     0.49871824797857     0.00191447306967     0.49936727895176
                 216    -0.00538249225388    -0.00001770260717     0.00004472978335     0.49848911168498     0.00736847571083     0.49414241260420
                 217     0.00002738294378     0.00011229399867     0.00000762444845     0.49979340161727     0.00033727970082     0.49986931868191
                 218    -0.00569309702641    -0.00011899254622     0.00002185295955     0.49976587494577     0.00606597588079     0.49416814917344
                 219     0.00007498871901     0.00004617662465     0.00000104202812     0.49922203184017     0.00105360875721     0.49972435940262
                 220    -0.00563971195163     0.00011199792313    -0.00004888415505     0.49928119471769     0.00662689594082     0.49409190934149
                 221     0.00004821082714    -0.00001283130318    -0.00003780716535     0.49909300395791     0.00128401513060     0.49962298091149
                 222    -0.00548794755717     0.00002809515643    -0.00004404623459     0.49901266280628     0.00687481251055     0.49411252468317
                 223     0.00000728660652     0.00006835530881    -0.00000416377516     0.49997709923664     0.00003643303262     0.49998646773074
                 224    -0.00573542663062    -0.00003465723990    -0.00000519858598     0.49996776876690     0.00584113121231     0.49419110002079
                 225     0.00000104123282     0.00010932243561     0.00000104123282     0.49997605164515     0.00003540191587     0.49998854643898
                 226    -0.00571343213732     0.00003468361262    -0.00000208087674     0.49997502947909     0.00581193163696     0.49421303888395
                 227     0.00000000000000     0.00010161614760     0.00000242768953     0.49999757231047     0.00000242768953     0.50000000000000
                 228    -0.00572280799112    -0.00010405105438     0.00000000000000     0.49999514428413     0.00579703107658     0.49420782463929
                 229     0.00000000000000    -0.00003467646855     0.00000000000000     0.50000000000000     0.00000000000000     0.50000000000000
                 230    -0.00575669302261     0.00006935774726     0.00000000000000     0.50000000000000     0.00582605076987     0.49417394923013
                 231     0.00000000000000     0.00003470053439     0.00000000000000     0.50000000000000     0.00000000000000     0.50000000000000
                 232    -0.00579338097551    -0.00006938180809     0.00000000000000     0.50000000000000     0.00586276278360     0.49413723721640
                 233     0.00082177531207     0.00019174757282     0.00063002773925     0.49449410540915     0.00764251040222     0.49786338418863
                 234    -0.00389555135599     0.00001457119067     0.00041114426480     0.49547741308722     0.01046102116577     0.49406156574700
                 235    -0.00035615203218     0.00016437786101    -0.00008218893050     0.48764426411430     0.01764322374809     0.49471251213761
                 236    -0.00264595995528     0.00010228038526     0.00010956244366     0.48822203730670     0.01865664084622     0.49312132184707
                 237     0.00024654969138    -0.00139334296431    -0.00090401553506     0.47307129481934     0.03550315555864     0.49142554962203
                 238    -0.00158568076692     0.00016285494960    -0.00013713373143     0.47572732953757     0.03602081349210     0.48825185697034
                 239     0.00016440066593    -0.00066488371218    -0.00010960044395     0.46596906215316     0.04499098224195     0.48903995560488
                 240    -0.00160569679902     0.00073954649470     0.00030129672006     0.46595347063310     0.04717085394074     0.48687567542615
                 241     0.00073980299667     0.00046964183698    -0.00016440066593     0.47068188124306     0.04173036903441     0.48758774972253
                 242    -0.00172245022416     0.00033252965112    -0.00071225466399     0.46860600596435     0.04315736754477     0.48823662649088
                 243     0.00098633557606    -0.00041825521509     0.00005479642089     0.48608170909343     0.01989110078380     0.49402719012277
                 244    -0.00217703975707     0.00029606023448     0.00030161044009     0.48500173538803     0.02261887157427     0.49237939303770
                 245     0.00052042160738    -0.00010401800793    -0.00013695305457     0.49246758199847     0.01068233825671     0.49685007974482
                 246    -0.00362773386356     0.00033610771533     0.00046583420049     0.49279327089837     0.01342481922137     0.49378190988026
                 247     0.00019181408255    -0.00049670886415    -0.00082206035380     0.47950329517863     0.02710058966354     0.49339611515782
                 248    -0.00336606507872     0.00052615755956     0.00019180077691     0.47980611820200     0.02938333351293     0.49081054828508
                 249     0.00005476603120    -0.00029393212311    -0.00005476603120     0.49414003466204     0.00854350086655     0.49731646447140
                 250    -0.00414894771903    -0.00033615435478    -0.00000000000000     0.49391590924860     0.01258993849125     0.49349415226016
                 251    -0.00046580188679    -0.00069402811295     0.00030140122087     0.49054696170921     0.01315205327414     0.49630098501665
                 252    -0.00356033533526     0.00070561079734    -0.00038386783285     0.49078717201166     0.01679092965062     0.49242189833772
                 253     0.00035634975711    -0.00017001930178    -0.00021929215822     0.49490145732131     0.00781228313671     0.49728625954199
                 254    -0.00458362457444    -0.00056776480267    -0.00041074523397     0.49460554592721     0.01179991472647     0.49359453934632
                 255     0.00041100166482    -0.00063748562132     0.00027400110988     0.49101276359600     0.01257665094340     0.49641058546060
                 256    -0.00277047076626     0.00011512284497     0.00013697205077     0.49186386018448     0.01481118296075     0.49332495685477
                 257    -0.00054823039556    -0.00116412415978    -0.00019188063845     0.47881089521166     0.02941256072172     0.49177654406662
                 258    -0.00190925784520     0.00020087679923     0.00030148487372     0.47875902026089     0.03023600046053     0.49100497927858
                 259    -0.00019194724054     0.00006212210755    -0.00000000000000     0.49122526900382     0.01297014925373     0.49580458174245
                 260    -0.00293394105051     0.00001457119067    -0.00024636174636     0.48957068607069     0.01655315534583     0.49387615858349
                 261     0.00032889258951     0.00028691570485    -0.00019185401055     0.49810886761032     0.00282299472662     0.49906813766306
                 262    -0.00500709845045     0.00011680400382     0.00013690558713     0.49800117842784     0.00773238814393     0.49426643342823
                 263     0.00000000000000     0.00003469571855     0.00000000000000     0.50000000000000     0.00000000000000     0.50000000000000
                 264    -0.00572558817406     0.00013880213755     0.00000000000000     0.50000000000000     0.00579498924283     0.49420501075716
                 265     0.00000000000000     0.00006935774726     0.00000000000000     0.50000000000000     0.00000000000000     0.50000000000000
                 266    -0.00575749167592    -0.00013873473918     0.00000000000000     0.50000000000000     0.00582685904550     0.49417314095449
                 267     0.00000000000000    -0.00003468609088     0.00000000000000     0.50000000000000     0.00000000000000     0.50000000000000
                 268    -0.00568536365527     0.00010400055467     0.00000000000000     0.50000000000000     0.00575469735839     0.49424530264161
                 269     0.00000000000000    -0.00027754648904     0.00000000000000     0.50000000000000     0.00000000000000     0.50000000000000
                 270    -0.00569128262077    -0.00020821765686     0.00000000000000     0.50000000000000     0.00576068850639     0.49423931149362
                 271     0.00000000000000    -0.00003467165939     0.00000000000000     0.50000000000000     0.00000000000000     0.50000000000000
                 272    -0.00579257717655     0.00006937218176     0.00000000000000     0.50000000000000     0.00586194935831     0.49413805064169
                 273     0.00000000000000    -0.00006936736959     0.00000000000000     0.50000000000000     0.00000000000000     0.50000000000000
                 274    -0.00575549545801     0.00010401497816     0.00000000000000     0.50000000000000     0.00582483877678     0.49417516122322
                 275     0.00000000000000    -0.00003469571855     0.00000000000000     0.50000000000000     0.00000000000000     0.50000000000000
                 276    -0.00579378295865    -0.00003469331113     0.00000000000000     0.50000000000000     0.00586316958090     0.49413683041909
                 277     0.00000000000000    -0.00013877324452     0.00000000000000     0.50000000000000     0.00000000000000     0.50000000000000
                 278    -0.00575589459085    -0.00006934812760     0.00000000000000     0.50000000000000     0.00582524271845     0.49417475728155
                 279     0.00000000000000    -0.00010402940565     0.00000000000000     0.50000000000000     0.00000000000000     0.50000000000000
                 280    -0.00579137189624    -0.00003467887363     0.00000000000000     0.50000000000000     0.00586072964350     0.49413927035650
                 281     0.00000000000000     0.00013873473918     0.00000000000000     0.50000000000000     0.00000000000000     0.50000000000000
                 282    -0.00572598556358     0.00003470294281     0.00000000000000     0.50000000000000     0.00579539144919     0.49420460855080
                 283     0.00000000000000    -0.00022049646374     0.00000000000000     0.49998751906809     0.00001248093191     0.50000000000000
                 284    -0.00567800138793     0.00006939625260     0.00000000000000     0.49998750867453     0.00575988896600     0.49425260235947
                 285     0.00000000000000     0.00019558884727     0.00002496878901     0.49996254681648     0.00004993757803     0.49998751560549
                 286    -0.00579483978360     0.00019558884727     0.00000624219725     0.49996878901373     0.00590789291164     0.49412331807463
                 287     0.00000000000000    -0.00010405827263     0.00000000000000     0.50000000000000     0.00000000000000     0.50000000000000
                 288    -0.00579498924283    -0.00006940106878     0.00000000000000     0.50000000000000     0.00586439031161     0.49413560968839
                 289     0.00000000000000    -0.00000000000000     0.00000000000000     0.50000000000000     0.00000000000000     0.50000000000000
                 290    -0.00578976563583     0.00003466925530     0.00000000000000     0.50000000000000     0.00585910414644     0.49414089585356
                 291     0.00000000000000    -0.00010404383714     0.00000000000000     0.50000000000000     0.00000000000000     0.50000000000000
                 292    -0.00579097024759     0.00000000000000     0.00000000000000     0.50000000000000     0.00586032318469     0.49413967681531
                 293     0.00000000000000     0.00020821765686     0.00000000000000     0.50000000000000     0.00000000000000     0.50000000000000
                 294    -0.00575709232156    -0.00003468127905     0.00000000000000     0.50000000000000     0.00582645487966     0.49417354512034
                 295     0.00000000000000    -0.00006939625260     0.00000000000000     0.50000000000000     0.00000000000000     0.50000000000000
                 296    -0.00578976563583    -0.00003466925530     0.00000000000000     0.50000000000000     0.00585910414644     0.49414089585356
                 297     0.00000000000000    -0.00024266796090     0.00000000000000     0.50000000000000     0.00000000000000     0.50000000000000
                 298    -0.00568930826337     0.00003469090404     0.00000000000000     0.50000000000000     0.00575869007146     0.49424130992854
                 299     0.00000000000000     0.00027731558514     0.00000000000000     0.50000000000000     0.00000000000000     0.50000000000000
                 300    -0.00586194935831     0.00006937218176     0.00000000000000     0.50000000000000     0.00586194935831     0.49413805064169
 l=         200
                   1     0.00152447819347     0.00085247018710    -0.00027446805778     0.24956050697954     0.29287999643659     0.45755949658388
                   2    -0.00100474957883    -0.00065831254185     0.00058778786884     0.33377928753291     0.23511333329523     0.43110737917185
                   3    -0.00016638502111     0.00033444678778     0.00013944271728     0.30553384326701     0.25672068214431     0.43774547458867
                   4    -0.00019626501164     0.00078697792348    -0.00022271093300     0.30927986712663     0.25328477644073     0.43743535643263
                   5    -0.00001265269198    -0.00020787164861     0.00031902551381     0.31235642558898     0.24852171881241     0.43912185559861
                   6    -0.00018141926676     0.00070403697783    -0.00036656716776     0.31337040930811     0.24806862895780     0.43856096173409
                   7     0.00005898005648    -0.00154544174051    -0.00011590470724     0.30709834353607     0.25749337023795     0.43540828622597
                   8    -0.00027160095122     0.00037775248573    -0.00061714748553     0.30983401678147     0.25519294955206     0.43497303366647
                   9    -0.00026181084678     0.00079262754422     0.00044507605001     0.31068361268581     0.25258537533145     0.43673101198274
                  10     0.00008775790410     0.00005418609129    -0.00041925138399     0.30398768714743     0.25730297615342     0.43870933669915
                  11    -0.00023302047072     0.00080044252323     0.00068870708473     0.31951709198581     0.24034406005341     0.44013884796079
                  12    -0.00010966507628    -0.00098725593054     0.00017365963696     0.31671144340586     0.24212341990646     0.44116513668768
                  13     0.00036764935577     0.00041529441771     0.00092999534127     0.31180021589036     0.24926131154377     0.43893847256587
                  14     0.00058502874086    -0.00015362982049    -0.00100355544832     0.31618025498071     0.24601175012848     0.43780799489082
                  15     0.00007070697847     0.00016880980703    -0.00094781120708     0.31000460105581     0.25103882210083     0.43895657684335
                  16     0.00007112910512    -0.00200448376292     0.00126373226895     0.30660686412548     0.25298523339239     0.44040790248212
                  17     0.00024754960628     0.00197035815167     0.00016818446687     0.31973888817332     0.23805997986287     0.44220113196381
                  18     0.00035864669824    -0.00123234494093    -0.00035121980508     0.32112020750977     0.23727056995858     0.44160922253165
                  19    -0.00041754531278     0.00246502703494    -0.00084109329924     0.30370292157235     0.25937849134530     0.43691858708236
                  20    -0.00011086347235     0.00170655057300     0.00032880326735     0.31051836258402     0.25426496486757     0.43521667254840
                  21    -0.00005520156622    -0.00010803689440     0.00046400307009     0.30713828956125     0.25619432019469     0.43666739024406
                  22    -0.00062401043749    -0.00187127636604     0.00073991777360     0.30410861902376     0.25783528678572     0.43805609419051
                  23     0.00019802401525     0.00042385980381     0.00006896984659     0.31666176606733     0.24421834498854     0.43911988894412
                  24     0.00065876347706    -0.00170186085220    -0.00051879765476     0.31625680343362     0.24508795451153     0.43865524205485
                  25     0.00017203753712     0.00138274182051     0.00072677121136     0.30603792930003     0.25682852943425     0.43713354126572
                  26    -0.00016591717867     0.00146747452038     0.00077295281748     0.30775607661272     0.25592207602678     0.43632184736049
                  27    -0.00006452455209     0.00080000594857    -0.00020052193687     0.31589356614488     0.24550929191042     0.43859714194470
                  28    -0.00022848446491    -0.00182252424311     0.00009343053891     0.31049423935898     0.24973655330198     0.43976920733904
                  29     0.00057199871084     0.00041381777289    -0.00107165582671     0.31846268441109     0.23965054952681     0.44188676606209
                  30    -0.00026746477333     0.00068362602189     0.00025246345631     0.32035738063643     0.23862512853835     0.44101749082522
                  31    -0.00011445904204    -0.00085273617880     0.00080648903444     0.30382452085399     0.25920985813258     0.43696562101344
                  32    -0.00031852604502    -0.00021518733665     0.00096840485922     0.30954599427804     0.25436313440496     0.43609087131700
                  33     0.00014287518674    -0.00004854801123     0.00052347085168     0.30685840128676     0.25620321404292     0.43693838467033
                  34     0.00003755893802     0.00062178673290    -0.00040784648977     0.30719846660085     0.25490906069803     0.43789247270111
                  35     0.00002182425740     0.00107694556082     0.00088861315458     0.30803508459840     0.25332006153338     0.43864485386822
                  36     0.00047138339633    -0.00209489359441    -0.00006529352685     0.30545953249427     0.25537333348505     0.43916713402068
                  37    -0.00042680874818     0.00144390265012    -0.00056263488459     0.30791468263632     0.25486972694021     0.43721559042347
                  38    -0.00011024944512     0.00122556719288    -0.00147182196950     0.30915429441284     0.25371418973325     0.43713151585391
                  39     0.00020804730432    -0.00150844487991     0.00038001238941     0.30555417699998     0.25776815805164     0.43667766494837
                  40    -0.00014500880303     0.00017722260827    -0.00067920449806     0.30320227903144     0.26013202994679     0.43666569102177
                  41     0.00039163636288     0.00145898527180     0.00076116201641     0.31510034339490     0.24530602671005     0.43959362989505
                  42     0.00030872355261    -0.00130423423349     0.00073691372193     0.31403013865881     0.24658119634825     0.43938866499294
                  43     0.00046338715793     0.00121004141785    -0.00066966141701     0.30662707527482     0.25530806597812     0.43806485874706
                  44     0.00059926399296    -0.00033734530036    -0.00051392195367     0.31107667539545     0.25150223426295     0.43742109034161
                  45     0.00011760381267    -0.00019513747215     0.00158011802707     0.30252991514073     0.25947051926598     0.43799956559329
                  46     0.00035380549921    -0.00175323315131    -0.00031459219109     0.30219778858011     0.26053406469221     0.43726814672768
                  47     0.00035678463607     0.00131695442164    -0.00065653330260     0.31055997372369     0.25108330192587     0.43835672435044
                  48     0.00028515139748     0.00000410124339    -0.00076000939320     0.31054518453292     0.25262365047811     0.43683116498896
                  49    -0.00057692583262    -0.00131361838598     0.00044822912480     0.30459757449161     0.25957262449822     0.43582980101017
                  50     0.00015742727566     0.00138067180257    -0.00009086276922     0.30602392341753     0.25842734270945     0.43554873387302
                  51    -0.00053142662095    -0.00228447478771    -0.00002192761007     0.30979982501971     0.25360075018570     0.43659942479459
                  52     0.00020176855418     0.00144255248331    -0.00013354791635     0.30458555229871     0.25777845617044     0.43763599153085
                  53     0.00003887610940    -0.00153793583493     0.00045108949392     0.31282658766612     0.24826662692973     0.43890678540415
                  54    -0.00016445203607     0.00026322531796    -0.00047894382199     0.31318606230598     0.24793159283132     0.43888234486270
                  55     0.00035129945285     0.00051158035928     0.00117931348261     0.30934215917153     0.25272126008549     0.43793658074297
                  56    -0.00028468138107    -0.00007310034225    -0.00047368319104     0.31341852683251     0.24949543006776     0.43708604309973
                  57     0.00029855919698    -0.00081346577335     0.00049804615734     0.30459101389867     0.26067224716477     0.43473673893656
                  58    -0.00047242789570     0.00153539898705    -0.00055022531672     0.30744502151496     0.25893702175574     0.43361795672930
                  59     0.00034080779723     0.00040889761521     0.00046055198566     0.30590813660329     0.25851958514920     0.43557227824751
                  60     0.00026781317329     0.00234374470126    -0.00008471592332     0.30342520376457     0.25965812332646     0.43691667290896
                  61    -0.00034288180305    -0.00054937812163    -0.00009394559204     0.30974984144385     0.25281715214928     0.43743300640687
                  62    -0.00023616987618    -0.00347890044427     0.00009605586403     0.30818788309297     0.25462781346191     0.43718430344512
                  63    -0.00024885520197     0.00141860740316     0.00020723397220     0.30735797425457     0.25654666125238     0.43609536449305
                  64    -0.00031487071034     0.00002551912102    -0.00001089242116     0.30822178596564     0.25538784804732     0.43639036598704
                  65    -0.00003572296510    -0.00165150118352     0.00065701587088     0.31019916946953     0.25247973227936     0.43732109825111
                  66     0.00001867039789     0.00192754056286    -0.00101049077695     0.30348853696790     0.25640810973728     0.44010335329483
                  67     0.00015782390052    -0.00071480469842     0.00034793258426     0.31614343828130     0.24172931471962     0.44212724699909
                  68     0.00001506704265    -0.00040530881815     0.00060327678612     0.31764186606049     0.24113079951626     0.44122733442325
                  69     0.00024878050848     0.00224434568993    -0.00155102373962     0.30672337147565     0.25608103391395     0.43719559461041
                  70    -0.00056131955578     0.00006026160341     0.00065684230949     0.30658656102213     0.25675291548421     0.43666052349366
                  71    -0.00029954095392    -0.00139720004137     0.00043371751169     0.31485441325276     0.24573113629463     0.43941445045261
                  72     0.00002736367932    -0.00078742246087     0.00010092746412     0.30886070162168     0.24916440364533     0.44197489473299
                  73    -0.00002675886056     0.00197139402824    -0.00021376149742     0.31959130978774     0.23839899243444     0.44200969777782
                  74    -0.00071971539237     0.00161751591222     0.00024823079759     0.32329491335730     0.23567957422205     0.44102551242065
                  75    -0.00008876725037    -0.00173458754813    -0.00001456474446     0.30551735458237     0.25738510301455     0.43709754240308
                  76    -0.00038567023446    -0.00272560587518     0.00011156182821     0.31098986995927     0.25324787444621     0.43576225559452
                  77    -0.00025606369720     0.00335702718379    -0.00010677452413     0.31316312614696     0.24928506912253     0.43755180473051
                  78    -0.00011309838721    -0.00006952387041    -0.00027561734033     0.30933230154891     0.25206592304045     0.43860177541065
                  79     0.00007026873994    -0.00344573292254    -0.00084856662753     0.31281822406183     0.24685469184163     0.44032708409653
                  80    -0.00003083821978     0.00002559897567    -0.00053323313168     0.31368443488437     0.24578248728258     0.44053307783305
                  81     0.00125479030907     0.00174008061139    -0.00034630822357     0.30576426651220     0.25673156682434     0.43750416666346
                  82    -0.00016497244229     0.00098394464542    -0.00009085363881     0.30879435660014     0.25462774272408     0.43657790067578
                  83     0.00081416288036    -0.00120340578845    -0.00037626731998     0.31458476773199     0.24702743716277     0.43838779510524
                  84    -0.00001694653483    -0.00109060302598    -0.00059251523790     0.30996790466946     0.24908392267969     0.44094817265086
                  85     0.00031561356385    -0.00095275035741    -0.00139442770163     0.31627554411520     0.24318285704908     0.44054159883571
                  86    -0.00074479667942     0.00228310674484     0.00067816386100     0.31334740330051     0.24555735988706     0.44109523681243
                  87    -0.00011281657092    -0.00105537879511     0.00055627068080     0.31884981504330     0.24050692938939     0.44064325556732
                  88     0.00035172714908    -0.00018139986661     0.00045691673676     0.31647766094646     0.24177163029319     0.44175070876035
                  89     0.00013316616370     0.00131192211081    -0.00061124887523     0.31471367139719     0.24240976071356     0.44287656788925
                  90     0.00022571359831    -0.00176705527717     0.00047322243637     0.31384527246135     0.24340356480137     0.44275116273728
                  91    -0.00012821450217    -0.00047898942177     0.00073254760909     0.31476161842326     0.24329384391014     0.44194453766659
                  92     0.00034240005606    -0.00124370663862    -0.00014295769418     0.31885682435745     0.24024634554900     0.44089683009355
                  93     0.00001829859363     0.00316316445122     0.00041250407951     0.31046246517630     0.25068288794055     0.43885464688315
                  94    -0.00016724913123    -0.00087251383077     0.00014310858217     0.31339532663355     0.24852827700296     0.43807639636349
                  95     0.00018358056239     0.00153490725952    -0.00042272643530     0.31206822470960     0.24822767592734     0.43970409936307
                  96     0.00018019433914    -0.00092177501190    -0.00035953108807     0.31342824319351     0.24703415338295     0.43953760342354
                  97    -0.00021871731002    -0.00020907515456    -0.00003413333694     0.30908372685565     0.25180882883373     0.43910744431062
                  98     0.00034656475508     0.00024644067747    -0.00050433784328     0.30697908141084     0.25411353465697     0.43890738393218
                  99    -0.00053908375002    -0.00039902932748     0.00063601618220     0.31550626773838     0.24423557325523     0.44025815900639
                 100    -0.00021542941363     0.00066242351435    -0.00069074320754     0.31402849558691     0.24577734870220     0.44019415571089
                 101    -0.00024890124191     0.00032965462716     0.00018209982097     0.31225685473323     0.24789327138410     0.43984987388267
                 102     0.00019281071777     0.00190294685722    -0.00000383418709     0.30995665911818     0.24952390884126     0.44051943204056
                 103    -0.00034063961657    -0.00070575875419    -0.00118199853841     0.31791632271080     0.23961591563981     0.44246776164939
                 104     0.00039951925245    -0.00208719501530     0.00090282699966     0.31743880830916     0.24047290206859     0.44208828962225
                 105    -0.00021098340658     0.00235248014795    -0.00000800043192     0.31140691131031     0.24839928017268     0.44019380851701
                 106    -0.00047595121048    -0.00172201884289    -0.00018524517678     0.31332499755069     0.24767008659621     0.43900491585310
                 107     0.00005584959394    -0.00091729818282    -0.00049992092924     0.31339091533189     0.24592560794350     0.44068347672462
                 108    -0.00035802803270    -0.00008064675623     0.00076035031715     0.31076183034964     0.24759570510851     0.44164246454185
                 109    -0.00007523783474    -0.00036637281097    -0.00014175477854     0.31948325268161     0.23805007681682     0.44246667050158
                 110    -0.00017943911908     0.00134517307942    -0.00050837018539     0.31662365488625     0.24041570876216     0.44296063635159
                 111    -0.00001700635870     0.00003986474973     0.00110729821420     0.31824626425987     0.23911848807711     0.44263524766302
                 112     0.00060189239846     0.00099650852889    -0.00028825975112     0.32217085422169     0.23627588072483     0.44155326505348
                 113     0.00019809951710    -0.00080254617699     0.00017692898916     0.31296889480926     0.24683498731733     0.44019611787341
                 114    -0.00001734877827    -0.00118725401937     0.00013204597790     0.31300675394020     0.24682462590767     0.44016862015213
                 115     0.00016150891258     0.00082392973978    -0.00045355713734     0.31925452854110     0.23875045221340     0.44199501924551
                 116     0.00036010665959    -0.00212291012695    -0.00024041157516     0.31645611728918     0.24058153930916     0.44296234340167
                 117     0.00005406592751     0.00151414356368     0.00051841501999     0.32099514073044     0.23663527596402     0.44236958330554
                 118    -0.00044619824881     0.00067291436168     0.00114063682551     0.32326196040494     0.23453996897022     0.44219807062484
                 119     0.00022262889394    -0.00030108494739     0.00106894673745     0.30678173539989     0.25380060263521     0.43941766196491
                 120     0.00080866953491    -0.00162121094480    -0.00053196568354     0.30955798254800     0.25133963993107     0.43910237752093
                 121     0.00053905402159     0.00086508192610    -0.00032183033690     0.31567181965710     0.24377512354651     0.44055305679639
                 122     0.00084232003114     0.00111411072918    -0.00079349376688     0.31371529716745     0.24445065990175     0.44183404293080
                 123     0.00015314527125    -0.00028157657635     0.00038329506734     0.31523175021015     0.24303862153409     0.44172962825576
                 124     0.00002074492031    -0.00247747338563    -0.00115153731595     0.31480524536637     0.24394693772825     0.44124781690538
                 125    -0.00027330488696     0.00288391073030     0.00046654820460     0.31547791475236     0.24500263637811     0.43951944886953
                 126    -0.00036969742395     0.00008146188707     0.00016981207793     0.31561711434228     0.24512863232277     0.43925425333495
                 127    -0.00076607972034    -0.00052077646770     0.00053130491663     0.31973308357274     0.23831793127841     0.44194898514885
                 128    -0.00023826265897     0.00193887301668     0.00006467328605     0.31586113331572     0.24115284808231     0.44298601860197
                 129     0.00000511034423    -0.00044168537800    -0.00036318160600     0.32051724777394     0.23593136572373     0.44355138650232
                 130    -0.00059524607748    -0.00083044307686     0.00007234826825     0.32263063671300     0.23480196434649     0.44256739894051
                 131     0.00022200354292     0.00023719222503     0.00023995677515     0.31270137460751     0.24665283494580     0.44064579044669
                 132    -0.00009950943123    -0.00175040176800    -0.00053267033010     0.31442406632209     0.24623535138629     0.43934058229163
                 133    -0.00020158716334     0.00119830680397    -0.00080521153223     0.31515063974127     0.24363181636935     0.44121754388938
                 134    -0.00008191720329    -0.00117580818045     0.00077098133290     0.31182526565098     0.24661313719097     0.44156159715805
                 135     0.00014564084583    -0.00028496853419    -0.00014081958420     0.32658762102485     0.23003023389947     0.44338214507568
                 136     0.00036480890748     0.00226021961661    -0.00000666651026     0.32320223434344     0.23245163891129     0.44434612674527
                 137    -0.00008924304204    -0.00179873176368     0.00033983507941     0.32337891142944     0.23408957790374     0.44253151066682
                 138     0.00011968775998     0.00118243962980    -0.00017440444236     0.31947021162201     0.23565806895500     0.44487171942299
                 139     0.00043151957609    -0.00067695870944    -0.00037089564398     0.32993638594663     0.22304552083851     0.44701809321486
                 140    -0.00051669314446     0.00005865179111     0.00027028588036     0.33058800412746     0.22288544233752     0.44652655353502
                 141    -0.00003561339137     0.00054508101472     0.00024830938954     0.31970975569533     0.23512302235331     0.44516722195136
                 142     0.00017662854873    -0.00115563067086     0.00028219849465     0.32385310582644     0.23247180661899     0.44367508755457
                 143     0.00038375122844    -0.00194464432564     0.00069815204797     0.31475880476023     0.24335406209051     0.44188713314927
                 144    -0.00005101221384     0.00107165416332    -0.00014856540609     0.31458406278249     0.24391995224633     0.44149598497118
                 145     0.00002761215594    -0.00077353893552    -0.00096409852066     0.32564183713486     0.23189206574502     0.44246609712012
                 146     0.00053279910136     0.00127894985081     0.00032314467536     0.32281707796248     0.23329115125821     0.44389177077931
                 147     0.00029892162421    -0.00109706772855    -0.00026361173581     0.32346180938325     0.23229251242543     0.44424567819131
                 148    -0.00010826865414     0.00131408213125     0.00087868651618     0.32381420254643     0.23174026642286     0.44444553103071
                 149    -0.00023585810735     0.00138243071500    -0.00030420729391     0.32388582416221     0.23157432689834     0.44453984893945
                 150     0.00026594593007    -0.00001821102992     0.00054174272374     0.32461289873019     0.23148313320872     0.44390396806108
                 151    -0.00063780990423    -0.00051507243457    -0.00000155417187     0.32094819389753     0.23655834882204     0.44249345728043
                 152     0.00011999884220     0.00075805012785    -0.00043500179346     0.31866613294168     0.23690161173783     0.44443225532049
                 153    -0.00005483202832    -0.00039457631293    -0.00000108153683     0.33019010857214     0.22365852794639     0.44615136348147
                 154     0.00004332112357     0.00066612011743     0.00048098464998     0.32778456428350     0.22622998928105     0.44598544643544
                 155    -0.00039843773308    -0.00296856163018    -0.00030944006988     0.32144324805179     0.23278040265948     0.44577634928872
                 156    -0.00003545874098     0.00153699139828     0.00036484610878     0.32157560433533     0.23240302984520     0.44602136581948
                 157     0.00053590807400     0.00168080908591    -0.00093504555038     0.32930827548677     0.22325650435459     0.44743522015864
                 158     0.00006213641421    -0.00346799358936     0.00023742770139     0.32520794893418     0.22685641842951     0.44793563263631
                 159     0.00003283916576     0.00015900541515     0.00005089556902     0.33158092797026     0.22041195459046     0.44800711743928
                 160    -0.00003532469179     0.00086481223349     0.00064927660753     0.33002518217786     0.22173273993303     0.44824207788911
                 161     0.00006897294824    -0.00078054041152     0.00051035658211     0.33661500015798     0.21372483158219     0.44966016825983
                 162    -0.00016434991946     0.00080362753129     0.00101071611834     0.33294356563527     0.21629704027557     0.45075939408916
                 163    -0.00025412969814     0.00127637108830    -0.00015259249545     0.33490436096399     0.21441852735951     0.45067711167649
                 164    -0.00056832043176    -0.00110587871487    -0.00077754254099     0.33544620299199     0.21356418481427     0.45098961219374
                 165    -0.00016243696899    -0.00029386580914     0.00017573815190     0.34049623284079     0.20928136778515     0.45022239937406
                 166    -0.00039265379348    -0.00019900744191    -0.00005062186390     0.33476650680880     0.21421790603181     0.45101558715939
                 167     0.00023063303437    -0.00070307095222     0.00082961675021     0.34668599131316     0.20004331388734     0.45327069479950
                 168    -0.00031123146648     0.00172733392093    -0.00123885613879     0.34703155394641     0.19939748848027     0.45357095757332
                 169    -0.00018530187539     0.00063228879978     0.00050985478022     0.33769449408604     0.21184940924734     0.45045609666662
                 170     0.00034651868674    -0.00189579323345     0.00007431855818     0.33947032313750     0.21054374866151     0.44998592820098
                 171     0.00020140202120    -0.00059591235081     0.00012100131329     0.34391570141154     0.20431966981524     0.45176462877322
                 172    -0.00051916443828     0.00113383752972     0.00016892938437     0.33702956977865     0.20955422580910     0.45341620441224
                 173     0.00027682733690     0.00048957070217    -0.00017487084782     0.35846258095216     0.18518131325706     0.45635610579077
                 174     0.00010953368444     0.00039703494343     0.00045193006897     0.35991511069641     0.18434589532918     0.45573899397441
                 175     0.00068477762995    -0.00104250531328    -0.00043596130258     0.34141701226558     0.20709129600263     0.45149169173179
                 176    -0.00045970025582     0.00181127692777     0.00094415385860     0.34236159298562     0.20634588972709     0.45129251728729
                 177     0.00019009980419    -0.00102719371165     0.00063258744587     0.35026927909946     0.19568135654492     0.45404936435561
                 178    -0.00040923803975     0.00071085812897     0.00026001815025     0.34555121772125     0.19887510159160     0.45557368068715
                 179     0.00039847330606     0.00024105354592    -0.00042039936530     0.36072630380854     0.18179077940849     0.45748291678297
                 180    -0.00039413657017    -0.00075622103938     0.00010132048670     0.36202674829665     0.18088107699101     0.45709217471234
                 181     0.00018979023676     0.00113054268363     0.00010060916362     0.34767496874468     0.19873872958719     0.45358630166812
                 182     0.00004643347034    -0.00047869261549     0.00000793691356     0.34584348784942     0.20027909337113     0.45387741877946
                 183     0.00022783992888     0.00086988365524     0.00002393996699     0.36399305480892     0.17875869645650     0.45724824873458
                 184    -0.00000928618668    -0.00018724682549     0.00035094073743     0.35928829470862     0.18219670141297     0.45851500387842
                 185     0.00026010496704     0.00103078500648     0.00005897220904     0.36676275481802     0.17379848380753     0.45943876137444
                 186     0.00059956607549    -0.00064729700320    -0.00096038323376     0.36841202287214     0.17195918521048     0.45962879191739
                 187     0.00008527500436    -0.00164242012846     0.00061272481002     0.35281729010269     0.19096262515065     0.45622008474666
                 188    -0.00038359307112     0.00065407824307    -0.00081807854123     0.35764692888755     0.18742989310299     0.45492317800946
                 189     0.00058580370893     0.00041362677144     0.00110798269701     0.34506311615221     0.20044694056610     0.45448994328168
                 190     0.00015916887710    -0.00132104687594     0.00025873576948     0.34658616305110     0.19984185757128     0.45357197937762
                 191     0.00044126516111     0.00102687687020    -0.00056720273314     0.35292076053242     0.19285926430628     0.45421997516130
                 192     0.00020811867548    -0.00050552390936    -0.00033715155067     0.35159316005622     0.19378889794339     0.45461794200039
                 193     0.00068859283807     0.00190705651278     0.00040238485066     0.34744803100148     0.19711814286035     0.45543382613817
                 194    -0.00026816246233     0.00048769793710    -0.00045301801494     0.35245592956010     0.19331153575502     0.45423253468487
                 195     0.00023904410921    -0.00058850582730    -0.00051556956952     0.34273384903902     0.20571282850877     0.45155332245221
                 196    -0.00045400976630     0.00002698660010     0.00007701462626     0.33944433787259     0.20843685518433     0.45211880694308
                 197     0.00006581219958    -0.00084898170067     0.00085703503100     0.35200009449005     0.19221364471091     0.45578626079904
                 198     0.00004417939791     0.00016982303335    -0.00000567308585     0.35080712623714     0.19336607713755     0.45582679662531
                 199     0.00003055299183     0.00147727852653     0.00036528955066     0.34836944760628     0.19705465601789     0.45457589637583
                 200     0.00006132849924    -0.00092076129124     0.00054488885236     0.34953587052974     0.19634453481347     0.45411959465679
                 201    -0.00002916577123    -0.00171877866426     0.00057678481605     0.34815485095437     0.19873388266915     0.45311126637648
                 202     0.00005791293361     0.00007518999677     0.00000438806769     0.34715021928715     0.19974792695827     0.45310185375457
                 203    -0.00048281855038     0.00008810933180    -0.00065090327585     0.35350866918220     0.19177700609899     0.45471432471881
                 204    -0.00006308214734     0.00102967119557    -0.00000388698707     0.35187835905676     0.19334969757834     0.45477194336490
                 205     0.00012969186766    -0.00200627018764    -0.00027777327465     0.35854990638549     0.18569839579092     0.45575169782359
                 206    -0.00016336527714    -0.00137622322597    -0.00071365666080     0.35790571786040     0.18616567852820     0.45592860361141
                 207    -0.00025882148947     0.00191995581325    -0.00013032701945     0.34973212981759     0.19551438456114     0.45475348562127
                 208    -0.00019610684886    -0.00057404610001     0.00042596594269     0.35142615338929     0.19449248183593     0.45408136477478
                 209    -0.00076387754822    -0.00078960395248     0.00011584315495     0.35217616272545     0.19365841389594     0.45416542337861
                 210    -0.00033681407479    -0.00035424526262    -0.00024627143600     0.35319806843572     0.19249195515375     0.45430997641054
                 211     0.00000804018864     0.00085789621341     0.00043557197390     0.35373596370754     0.19174937432661     0.45451466196584
                 212    -0.00006043866512    -0.00104338981705     0.00077276379259     0.35003242633227     0.19420262200264     0.45576495166510
                 213    -0.00001769417372     0.00106353186584    -0.00036734590674     0.36020025418491     0.18419675386674     0.45560299194835
                 214     0.00016889565031    -0.00092361326284    -0.00005438437077     0.35513112429246     0.18786925134273     0.45699962436481
                 215     0.00031191338793    -0.00035736397310     0.00102325819966     0.37427622199374     0.16611752084337     0.45960625716289
                 216    -0.00039850514809    -0.00035704701535     0.00035111643316     0.36830704559770     0.17024786468204     0.46144508972026
                 217     0.00038400453181     0.00125375774132     0.00001671731974     0.38422590768828     0.15066180676388     0.46511228554785
                 218    -0.00043333743852    -0.00046918023287     0.00066609524893     0.38573065470914     0.14982263493666     0.46444671035420
                 219    -0.00018517231324     0.00003572659441    -0.00036620716563     0.36621904395385     0.17279302201976     0.46098793402638
                 220    -0.00023210180163     0.00030033046216     0.00034612469569     0.36871832487613     0.17129481552928     0.45998685959459
                 221     0.00007834526556    -0.00033428097642     0.00028709673645     0.37297623020266     0.16604079548814     0.46098297430920
                 222    -0.00047240704513    -0.00083511473533     0.00001702671879     0.36810083145998     0.16978013034280     0.46211903819722
                 223    -0.00000503235167     0.00162186477768     0.00044314201849     0.38842167619844     0.14670461716628     0.46487370663528
                 224    -0.00014387976839    -0.00133044748172    -0.00060220136925     0.38536837735335     0.14852389292926     0.46610772971738
                 225     0.00003670954863    -0.00058983838503    -0.00035773035132     0.38989923925369     0.14453546016774     0.46556530057856
                 226    -0.00066494093342     0.00017844141946    -0.00018311820212     0.38697046914472     0.14684079802950     0.46618873282579
                 227     0.00037001936724    -0.00024903432272    -0.00006866258479     0.40432263214431     0.12531981161247     0.47035755624322
                 228    -0.00091070275964     0.00054836755908     0.00026918580690     0.39980736916936     0.12978246749102     0.47041016333962
                 229     0.00028923186252    -0.00001115828764    -0.00026183901095     0.41083198290417     0.11627026944555     0.47289774765028
                 230    -0.00154738950894     0.00081259937039    -0.00026872514122     0.41014613547355     0.11758349137254     0.47227037315391
                 231    -0.00012286130150    -0.00001521534102     0.00015471554601     0.40809156166548     0.11964254652397     0.47226589181055
                 232    -0.00132095419147     0.00015509356164     0.00030419267678     0.40907344835590     0.12033183819593     0.47059471344818
                 233     0.00032155113188    -0.00164390982945     0.00019038794639     0.39950380242492     0.13014977197217     0.47034642560291
                 234    -0.00078578848844     0.00117963433314    -0.00015640912114     0.40217114971698     0.12883322212752     0.46899562815549
                 235    -0.00000651996597     0.00047858572679     0.00033119204949     0.40092468975361     0.12957979613092     0.46949551411548
                 236    -0.00056454052296    -0.00066731352359     0.00025697789593     0.40307653055202     0.12818674960617     0.46873671984181
                 237     0.00021717755687    -0.00008886280788    -0.00008095972988     0.37732014326657     0.15778331792975     0.46489653880368
                 238    -0.00006141105570     0.00023547709869    -0.00085617763063     0.38309982369669     0.15387536748875     0.46302480881456
                 239    -0.00003087200677    -0.00059657773801    -0.00030585680959     0.37658542173236     0.16081228048508     0.46260229778257
                 240    -0.00027599340799     0.00069968806197     0.00011900524673     0.37523444226553     0.16201376435763     0.46275179337684
                 241     0.00019557655424    -0.00199114528719    -0.00035818366330     0.38841771588953     0.14724899690443     0.46433328720604
                 242    -0.00010986859091     0.00080075197195    -0.00053473284519     0.38553246360766     0.14929868038450     0.46516885600784
                 243     0.00026256780266    -0.00006665790525     0.00036248794498     0.38841571754176     0.14657943380774     0.46500484865050
                 244    -0.00030700439391     0.00060155381429     0.00035662973198     0.38804907638342     0.14694074270451     0.46501018091207
                 245    -0.00010317396605    -0.00014396418122     0.00036948020526     0.40072697618487     0.13071268401037     0.46856033980476
                 246    -0.00098748676868    -0.00020348963589     0.00027471929996     0.39835228095020     0.13244567082846     0.46920204822134
                 247     0.00020238337795    -0.00109288108239    -0.00030596716463     0.39226084083724     0.14070467626068     0.46703448290208
                 248    -0.00093231445769     0.00085804702294    -0.00020353005231     0.39109879503115     0.14133696026828     0.46756424470057
                 249     0.00034710704687     0.00131360886019     0.00037302492839     0.40333445564775     0.12645810082396     0.47020744352829
                 250    -0.00060536012546    -0.00141696110358    -0.00007286295015     0.40490911370343     0.12593186059754     0.46915902569904
                 251    -0.00008110609516     0.00010034302839     0.00027800417932     0.39434039673585     0.13910031369204     0.46655928957210
                 252    -0.00094714981964     0.00096123102053     0.00041437474290     0.39517539346105     0.13895073356726     0.46587387297168
                 253     0.00028996661818    -0.00105713648539    -0.00048101309696     0.39858313974808     0.13266429407525     0.46875256617667
                 254    -0.00076505461831    -0.00101826174167     0.00002161027448     0.39610256240081     0.13470174939436     0.46919568820483
                 255     0.00029555077335     0.00034214521145     0.00007733370401     0.40189891576206     0.12803717741627     0.47006390682166
                 256    -0.00027177018789     0.00000482960484     0.00038982547120     0.40530604291809     0.12609179748980     0.46860215959211
                 257    -0.00010890623803    -0.00084173431767    -0.00045136734079     0.38183758658355     0.15356291369672     0.46459949971973
                 258    -0.00003466396660     0.00001766210279     0.00029452505486     0.38411429201107     0.15155017447118     0.46433553351775
                 259     0.00036542076566     0.00032251255257     0.00002105588569     0.39028150488131     0.14337474838436     0.46634374673433
                 260    -0.00083878921307    -0.00038388769657    -0.00005547689058     0.38662025005082     0.14667600495342     0.46670374499576
                 261     0.00018590299531    -0.00021286845971    -0.00006485092731     0.40361738577429     0.12714520153752     0.46923741268819
                 262    -0.00066482794655    -0.00082740621889     0.00023925245289     0.40114328646124     0.12897437629517     0.46988233724358
                 263     0.00013249741595     0.00016455445238    -0.00022305583287     0.40304565238944     0.12709618259077     0.46985816501978
                 264    -0.00124481455520    -0.00019520410842     0.00004230621958     0.40132431827066     0.12881320909990     0.46986247262944
                 265     0.00031115897195     0.00109461261286    -0.00009156126793     0.41495571433242     0.11227737434763     0.47276691131995
                 266    -0.00158259543266    -0.00104293473992     0.00051750129814     0.41108260479981     0.11635518987004     0.47256220533015
                 267     0.00001220398573     0.00023121144334    -0.00003468108631     0.42379576072821     0.09969840675899     0.47650583251279
                 268    -0.00148693493512    -0.00007811126226    -0.00023103957149     0.42349641110868     0.10151256007309     0.47499102881823
                 269     0.00017200757718     0.00011270712493    -0.00026085555929     0.41501485936689     0.11092167924368     0.47406346138944
                 270    -0.00149045596083    -0.00015853950254    -0.00026566429085     0.41396850769923     0.11317288322387     0.47285860907690
                 271     0.00054786412407    -0.00009773813007    -0.00009743097042     0.42395507875294     0.09965308069801     0.47639184054906
                 272    -0.00161186423637    -0.00017069700597    -0.00069841905017     0.42351796243455     0.10135836421782     0.47512367334763
                 273     0.00036620889499    -0.00031781625869     0.00068012724118     0.42834640077270     0.09492699342300     0.47672660580430
                 274    -0.00204775652431     0.00054135328991    -0.00025905643414     0.42544334283818     0.09816742600868     0.47638923115314
                 275     0.00008047804241    -0.00016302067621     0.00019073626150     0.42911433117845     0.09243387571258     0.47845179310897
                 276    -0.00197970705555    -0.00017795570290     0.00010655338509     0.42991918743828     0.09375093872620     0.47632987383552
                 277    -0.00012649555029     0.00049273106949    -0.00025952092143     0.43157911885306     0.09020453947973     0.47821634166722
                 278    -0.00201162534100    -0.00038655042468     0.00019877526235     0.42790153755056     0.09450698711164     0.47759147533780
                 279     0.00002777522193    -0.00003886981593    -0.00024071705130     0.44547817327823     0.07208187162724     0.48243995509454
                 280    -0.00235802364046     0.00015147586825     0.00001109224452     0.44468399821942     0.07482875994541     0.48048724183517
                 281     0.00028061665949    -0.00000693166190    -0.00031786202394     0.43717274909014     0.08190276167862     0.48092448923124
                 282    -0.00238404312376    -0.00052104056670    -0.00023344401625     0.43865994176037     0.08331783995680     0.47802221828283
                 283     0.00033611738277     0.00000355989056    -0.00004096324820     0.43607993565924     0.08331406239271     0.48060600194805
                 284    -0.00231437293959    -0.00010748061288    -0.00005114893715     0.43510350455887     0.08592792589420     0.47896856954693
                 285     0.00025276984748     0.00003635194527     0.00001456468943     0.44556852671771     0.07147004512515     0.48296142815715
                 286    -0.00227872460490    -0.00087980162253     0.00001628253004     0.44613861849049     0.07337156436599     0.48048981714352
                 287     0.00045595149127     0.00068352436988     0.00008467829146     0.43164600623770     0.08877509789083     0.47957889587146
                 288    -0.00257114975349     0.00027985716861     0.00030212595411     0.43288267195973     0.09020838404916     0.47690894399111
                 289    -0.00007758410508    -0.00032007707887     0.00002772327938     0.43559884183751     0.08360110860448     0.48080004955801
                 290    -0.00196864812976    -0.00037502361936     0.00013360144120     0.43365136685779     0.08736419069823     0.47898444244397
                 291     0.00006693550238    -0.00002887738296     0.00016480339666     0.44503229039493     0.07242268609636     0.48254502350871
                 292    -0.00255868490026     0.00073073591785    -0.00026082424846     0.44386546055120     0.07560845195163     0.48052608749717
                 293     0.00001416306924     0.00032473293554     0.00005938803911     0.44618339587482     0.07080400931817     0.48301259480701
                 294    -0.00234412203410    -0.00065324996261     0.00008603935084     0.44535316792903     0.07385144134074     0.48079539073024
                 295     0.00023444409653    -0.00016782767236    -0.00015951524263     0.44641931058662     0.07041115891369     0.48316953049970
                 296    -0.00248277163185    -0.00001905517189    -0.00013425538203     0.44568602910452     0.07316236878667     0.48115160210880
                 297     0.00027880214025    -0.00015333245812    -0.00025038016312     0.45023771634242     0.06637757404024     0.48338470961735
                 298    -0.00255971650367     0.00016579411368    -0.00037176498268     0.44655197565288     0.07087361553283     0.48257440881429
                 299     0.00025904311099     0.00111872887376     0.00000069665255     0.46843026034844     0.04333879017589     0.48823094947568
                 300    -0.00342262723456    -0.00086707980663     0.00015852873701     0.46014225376874     0.05110105592761     0.48875669030365
 l=         300
                   1     0.00096895270208     0.00023141495745     0.00105907119252     0.21574260017236     0.33237073161805     0.45188666820959
                   2    -0.00003082657618    -0.00151397091151     0.00008666135641     0.32949107209664     0.25391880390201     0.41659012400135
                   3     0.00021396210459     0.00143224516455    -0.00007222074891     0.29221941636671     0.28462394423247     0.42315663940081
                   4     0.00087915636771    -0.00037602908872    -0.00042525834621     0.29869598537721     0.27896492504104     0.42233908958175
                   5    -0.00025404352864    -0.00025867028871     0.00021940088943     0.29842306282172     0.27713450140283     0.42444243577545
                   6    -0.00036309886886     0.00106979242920     0.00056004657617     0.30010326366198     0.27586681608127     0.42402992025675
                   7    -0.00002146453297     0.00053664855624     0.00028974191848     0.29312893529510     0.28417425308096     0.42269681162394
                   8    -0.00043012805286    -0.00151384125709    -0.00015815639970     0.29530378593875     0.28225562994008     0.42244058412117
                   9    -0.00059724395333     0.00173407427064    -0.00059914907093     0.29930611653849     0.27787518917554     0.42281869428598
                  10    -0.00009474638091    -0.00016222670339    -0.00021560286467     0.29362628141393     0.28175830452221     0.42461541406386
                  11    -0.00030270922913    -0.00123053125565     0.00153926062639     0.29888781588112     0.27536014717316     0.42575203694572
                  12    -0.00052266884613     0.00084216160362     0.00002638941858     0.29678071442190     0.27692925344320     0.42629003213490
                  13    -0.00005693496988     0.00182298100117     0.00107310930798     0.29508166845395     0.28057238368254     0.42434594786351
                  14    -0.00003919497573    -0.00076310253849    -0.00077774510473     0.29699825295989     0.27862210057736     0.42437964646275
                  15    -0.00008171244826    -0.00191878070701    -0.00005065888285     0.29622026449167     0.27841730850342     0.42536242700491
                  16     0.00009300196554     0.00100348131826     0.00050255557081     0.29424637580171     0.27917413413685     0.42657949006145
                  17    -0.00058455084362     0.00122650804787    -0.00013931034966     0.29930931592577     0.27335962175257     0.42733106232167
                  18    -0.00071001645265    -0.00193894157284    -0.00003422054568     0.30185501313999     0.27261074032318     0.42553424653683
                  19    -0.00039749345505     0.00243003607547    -0.00019425160772     0.29372021689790     0.28234071898939     0.42393906411271
                  20     0.00032013140832     0.00148637948868     0.00064981346461     0.29820680865869     0.27969297046332     0.42210022087800
                  21     0.00002570945159    -0.00085497336821     0.00042786391022     0.29677990943935     0.27955427269247     0.42366581786817
                  22     0.00014137489066    -0.00307375425860     0.00026471690331     0.29228428100842     0.28324155257035     0.42447416642123
                  23    -0.00073507593419     0.00071946646318    -0.00004950134666     0.29967876811704     0.27416923422395     0.42615199765901
                  24     0.00012299007458    -0.00192897410751     0.00040156012180     0.30087307519051     0.27413108702414     0.42499583778535
                  25    -0.00003508966493     0.00107675629929    -0.00087946542958     0.29435336146586     0.28271820951562     0.42292842901852
                  26     0.00056028109920    -0.00181088244221     0.00089470082992     0.29575721633645     0.28069263900212     0.42355014466143
                  27     0.00015292381329     0.00133741092328    -0.00015084176561     0.29807839589911     0.27659774373601     0.42532386036488
                  28     0.00015113037188     0.00134645355404    -0.00030856716882     0.29541290065317     0.27825763288883     0.42632946645800
                  29     0.00005650036797    -0.00243040106036    -0.00053459996580     0.29994805341233     0.27311492412011     0.42693702246756
                  30     0.00018657546355     0.00199422002433    -0.00140454193142     0.30009056564413     0.27404429353345     0.42586514082242
                  31    -0.00005191538409    -0.00184208431886     0.00109677005954     0.29236869864734     0.28454878380578     0.42308251754687
                  32     0.00061593385940    -0.00142850051661     0.00016612931957     0.29712277668107     0.28057480737872     0.42230241594020
                  33    -0.00021897267398    -0.00115956029055     0.00106854463721     0.29767149097012     0.27943788593587     0.42289062309401
                  34     0.00018880589302     0.00159792449075    -0.00031666104339     0.29657741862950     0.27936207541297     0.42406050595753
                  35    -0.00002886347722     0.00029171070889     0.00072892083080     0.29515826897388     0.27947941605815     0.42536231496797
                  36    -0.00006593778082    -0.00111834406000    -0.00004984210125     0.29454563844944     0.28078375409636     0.42467060745421
                  37    -0.00026990235722     0.00053570912878    -0.00013980020216     0.29639884840692     0.27938912428708     0.42421202730600
                  38    -0.00058891645849     0.00260663119388     0.00043695587019     0.29660550837006     0.27996033188898     0.42343415974096
                  39     0.00015215294085    -0.00288141573778    -0.00118748706998     0.29543362581588     0.28148128651391     0.42308508767021
                  40    -0.00049270650149    -0.00165071517743     0.00002391366941     0.29315115929581     0.28212924496109     0.42471959574310
                  41    -0.00025302044230     0.00285762078443     0.00178353905216     0.29727771095001     0.27804433906213     0.42467794998786
                  42     0.00079969236386    -0.00068505080914    -0.00077254452778     0.29791432898555     0.27730626054448     0.42477941046997
                  43    -0.00066390850524     0.00015935896061     0.00024487069505     0.29682333660947     0.27873863250194     0.42443803088859
                  44    -0.00080572669623    -0.00112813683712    -0.00082449832176     0.29676694112788     0.27890154573649     0.42433151313563
                  45    -0.00113573941479     0.00090202545711     0.00016333910825     0.29372679494275     0.28207461177635     0.42419859328090
                  46    -0.00026909991374    -0.00276307595382     0.00040953300817     0.29526328932776     0.27971970536216     0.42501700531008
                  47    -0.00015888933045     0.00333569633424    -0.00013163727101     0.29750662847935     0.27844552094789     0.42404785057276
                  48    -0.00029766796813    -0.00222648971961    -0.00018526130900     0.29735931181198     0.27884635834327     0.42379432984475
                  49    -0.00020706461018    -0.00198541854943     0.00093179320513     0.29584876543187     0.28073486487343     0.42341636969470
                  50     0.00044986599644     0.00159612773261    -0.00025105557128     0.29607817012737     0.27995987439373     0.42396195547890
                  51    -0.00051165187355    -0.00056200434423     0.00117924310720     0.29739678114892     0.27887990367156     0.42372331517952
                  52    -0.00030766933699    -0.00001811935536    -0.00068253412084     0.29322461978034     0.28282058130228     0.42395479891738
                  53    -0.00025115079571    -0.00075051100606     0.00051195870692     0.29783590685335     0.27719525845197     0.42496883469468
                  54     0.00049801880944    -0.00225721123641    -0.00086746244961     0.29836686373078     0.27657573111548     0.42505740515373
                  55    -0.00001648670201     0.00025505172015     0.00042811901766     0.29145030004512     0.28345150880687     0.42509819114801
                  56    -0.00018867478716     0.00083335333999     0.00028908545166     0.29629186862332     0.27925117780137     0.42445695357531
                  57    -0.00006224115261    -0.00364564604165    -0.00050125030056     0.29534222830398     0.28288013210420     0.42177763959183
                  58    -0.00027889209407     0.00250076967581     0.00041239923542     0.29527450648432     0.28255831760174     0.42216717591394
                  59    -0.00008078390246    -0.00005162011358     0.00005802703947     0.29567869020656     0.28145577779887     0.42286553199457
                  60     0.00074386015058     0.00057000457485    -0.00078244761744     0.29452947071736     0.28160709962825     0.42386342965439
                  61    -0.00112047924008    -0.00004067155172     0.00059858862069     0.29524304356687     0.28065559168968     0.42410136474345
                  62    -0.00051775072188    -0.00178671073232     0.00067902462053     0.29633968433604     0.28007119295284     0.42358912271112
                  63     0.00000764804000    -0.00074337110010    -0.00021617907382     0.29660993449126     0.28114234980508     0.42224771570367
                  64     0.00008694997030     0.00155231437880     0.00031244035903     0.29695410108244     0.28005125872617     0.42299464019139
                  65     0.00036613459619    -0.00112219764048     0.00022047949694     0.29970501087886     0.27683003527966     0.42346495384149
                  66     0.00027855888164     0.00291722262513    -0.00193579438325     0.29531022548655     0.27916636376299     0.42552341075046
                  67    -0.00049671999129    -0.00239704524719     0.00038247297633     0.29698031211585     0.27585472029457     0.42716496758958
                  68    -0.00019796445815    -0.00060981701185    -0.00007343058260     0.29680212333791     0.27640517950084     0.42679269716125
                  69    -0.00046729795009     0.00247192638688    -0.00060268610140     0.29613747806405     0.28052999628461     0.42333252565134
                  70    -0.00043792824146    -0.00263049399413     0.00014591348810     0.29716685973818     0.28003333510016     0.42279980516166
                  71    -0.00034738292007    -0.00047364105834    -0.00042470933494     0.29665148470275     0.27827648926611     0.42507202603114
                  72    -0.00014318907435     0.00220125396389     0.00025423269423     0.29281868474921     0.28112512839968     0.42605618685111
                  73    -0.00007671960136    -0.00144870603766     0.00096619499617     0.30075858289695     0.27303971522077     0.42620170188228
                  74    -0.00071387429204     0.00386339080097    -0.00036530887773     0.30284395589110     0.27157796637305     0.42557807773585
                  75     0.00003267386549    -0.00274304317871    -0.00059066808978     0.29402183133151     0.28166315957008     0.42431500909841
                  76    -0.00001661162890    -0.00239448583737     0.00051357899670     0.29777786797319     0.27942767507933     0.42279445694749
                  77     0.00099392900681     0.00322871058598     0.00114425489412     0.29761131572689     0.27965475657457     0.42273392769853
                  78    -0.00045729238212    -0.00100298466144     0.00066114347998     0.29659060167000     0.28015396311719     0.42325543521282
                  79     0.00031316702425     0.00013382651307    -0.00180520400331     0.29886962963293     0.27620909125071     0.42492127911635
                  80    -0.00021189396140    -0.00267169001326     0.00097033118711     0.29821520051857     0.27664762506860     0.42513717441283
                  81     0.00086400955439     0.00256331210439    -0.00090295432102     0.29585125805752     0.28096977102947     0.42317897091301
                  82     0.00014573938282     0.00269826015865    -0.00039842939027     0.29664818284607     0.28041789402794     0.42293392312599
                  83     0.00063426472797    -0.00069679576386    -0.00059649846598     0.29816423761760     0.27716034053510     0.42467542184730
                  84    -0.00000241219875    -0.00236915811142    -0.00140984947561     0.29641411731638     0.27709988006396     0.42648600261965
                  85    -0.00026541150699    -0.00113732023996    -0.00093994672267     0.29626868211269     0.27775414373431     0.42597717415300
                  86     0.00060405790149     0.00277566203862    -0.00030666264750     0.29560546275125     0.27866715723669     0.42572738001205
                  87     0.00012175053717    -0.00039291618834     0.00037777876615     0.29714922136562     0.27720252591748     0.42564825271690
                  88    -0.00032383106741     0.00144024435880     0.00034094881840     0.29446338434914     0.27997168938428     0.42556492626657
                  89     0.00033939740841    -0.00079097727051    -0.00067623514332     0.29833907825574     0.27494602230533     0.42671489943893
                  90    -0.00041738572446     0.00177346049463    -0.00007420584796     0.29765972128893     0.27527650465173     0.42706377405935
                  91     0.00047718524816    -0.00329621058337     0.00034537813128     0.29353599475190     0.27942179066245     0.42704221458564
                  92     0.00066286975662    -0.00149193105426     0.00030873002752     0.29732804775083     0.27741409349088     0.42525785875829
                  93     0.00077458307364     0.00280734794005     0.00002007439384     0.29495407748633     0.28116582201937     0.42388010049430
                  94     0.00007808568620     0.00186115908275    -0.00103277306148     0.29875462485705     0.27758726209903     0.42365811304392
                  95    -0.00014953616425     0.00007498821477    -0.00118063427186     0.29567754972432     0.27907463945211     0.42524781082356
                  96     0.00067194941545    -0.00169560539115     0.00025698490644     0.29408732665035     0.28111642121895     0.42479625213070
                  97    -0.00046129409627     0.00120844114482     0.00033999491536     0.29609673092630     0.27893599446584     0.42496727460786
                  98     0.00030859077392     0.00005430693547     0.00033384313444     0.29389450512938     0.28101275963340     0.42509273523723
                  99     0.00023848153928    -0.00210838278561    -0.00021583173392     0.29753787245679     0.27800248531788     0.42445964222533
                 100     0.00047264419297     0.00035735804614    -0.00123186887487     0.29629104097112     0.27927023932145     0.42443871970744
                 101    -0.00002887111162     0.00132500365085     0.00067035472046     0.29649774850835     0.27890778495153     0.42459446654011
                 102     0.00046404304179     0.00175782042303    -0.00150467061160     0.29643194992121     0.27800242646403     0.42556562361476
                 103     0.00055967633802    -0.00065539537602     0.00083924296581     0.29450791411388     0.27862099230440     0.42687109358172
                 104     0.00027823717297    -0.00146365591292    -0.00072127456817     0.29671340523799     0.27755736736783     0.42572922739418
                 105    -0.00003603663559     0.00238524944458     0.00075831898544     0.29588225529283     0.28075588905978     0.42336185564739
                 106    -0.00081052646290    -0.00019416673521    -0.00061958398174     0.29582774007828     0.28022954198922     0.42394271793249
                 107     0.00153820847020     0.00014458180125    -0.00074782991791     0.29889255314673     0.27548895025450     0.42561849659877
                 108    -0.00020234972613    -0.00075455236023     0.00108994062505     0.29460119730681     0.27874621583832     0.42665258685487
                 109    -0.00021854060064    -0.00150883891579    -0.00132905852296     0.29862792157929     0.27408166768063     0.42729041074008
                 110     0.00055702641794     0.00127913519643     0.00022343522909     0.29850870545455     0.27470108104361     0.42679021350184
                 111     0.00000337994540    -0.00064923183892     0.00057395582018     0.29834319913731     0.27576040740801     0.42589639345467
                 112    -0.00018730808337     0.00059747098464     0.00069560303270     0.29995428086634     0.27427844233593     0.42576727679773
                 113     0.00012971918768    -0.00069998771398     0.00090523584583     0.29677102135920     0.27904640505829     0.42418257358251
                 114    -0.00020398397794     0.00123203632067    -0.00048399985501     0.29738629352109     0.27789059069328     0.42472311578563
                 115    -0.00037772201420    -0.00196629745207     0.00063374388776     0.29849331248464     0.27520985353758     0.42629683397777
                 116     0.00007874599356    -0.00293573698093    -0.00008794030916     0.29497377693561     0.27765738286166     0.42736884020273
                 117    -0.00006498939909     0.00248681402401     0.00078859152214     0.29937048826214     0.27296908856037     0.42766042317749
                 118     0.00008951848587     0.00254496476247     0.00122374029912     0.30275580577450     0.27102782388183     0.42621637034367
                 119     0.00005546468213    -0.00223619838880    -0.00062795787569     0.29197464385523     0.28347990028824     0.42454545585653
                 120     0.00067268454649    -0.00254624851690     0.00031327028842     0.29484117840452     0.28135550664371     0.42380331495177
                 121     0.00055897146755     0.00048184939407     0.00024234497189     0.29597380722229     0.27930855028028     0.42471764249743
                 122    -0.00012306371045     0.00109661249741    -0.00026595806202     0.29444970918512     0.28010889195548     0.42544139885940
                 123     0.00057368882411    -0.00141450134692    -0.00013700059547     0.29537373417063     0.27886110176137     0.42576516406801
                 124     0.00127812011675    -0.00100698778334    -0.00159222431044     0.29653551376648     0.27810988788024     0.42535459835328
                 125    -0.00027222666316     0.00232142856141     0.00067867531473     0.29685827045756     0.28008244054044     0.42305928900200
                 126    -0.00034202340773     0.00177338489094    -0.00078823833408     0.29767922913198     0.28044618227743     0.42187458859060
                 127    -0.00048971551857    -0.00201886984589    -0.00017979794626     0.29783613557217     0.27755444338449     0.42460942104334
                 128    -0.00033533076440     0.00268552701928    -0.00007724737059     0.29578659563126     0.27939936591322     0.42481403845552
                 129     0.00000162683667    -0.00018798617382    -0.00007073741353     0.29843192256963     0.27550776424224     0.42606031318814
                 130    -0.00001972564621    -0.00141994211035    -0.00027813906324     0.29756543797830     0.27703191128775     0.42540265073395
                 131     0.00005827215924     0.00022946075837    -0.00011266029329     0.29480379300712     0.28056924646358     0.42462696052930
                 132    -0.00058799812564    -0.00160677638756     0.00188493540163     0.29696404345654     0.27915213003473     0.42388382650873
                 133     0.00038772430080     0.00085327635004    -0.00049727616253     0.29686434322412     0.27818098882739     0.42495466794849
                 134     0.00065573704620     0.00065203566432     0.00008902626863     0.29329648721186     0.28095470609190     0.42574880669624
                 135     0.00009573188788    -0.00158600623710    -0.00114527363147     0.30011369962284     0.27291353387949     0.42697276649767
                 136     0.00028223267443     0.00035303558010     0.00026798129213     0.29838969891166     0.27401404604095     0.42759625504739
                 137    -0.00015087578149    -0.00075012449869    -0.00018878889462     0.29832321005461     0.27410794292617     0.42756884701922
                 138     0.00010111455807     0.00050894246467    -0.00102245736002     0.29673954998039     0.27558895321233     0.42767149680728
                 139     0.00018712632760    -0.00004975047992     0.00035969877205     0.29816189250900     0.27371374237651     0.42812436511449
                 140    -0.00009549791865     0.00013602921702    -0.00050886785241     0.29744275226092     0.27419973345049     0.42835751428860
                 141    -0.00026813438717     0.00006249300593     0.00003400139207     0.29753005107488     0.27430972070107     0.42816022822404
                 142     0.00024264416959     0.00012541093280    -0.00029974961758     0.29884146166197     0.27429685038512     0.42686168795292
                 143    -0.00021734404813    -0.00173868999611    -0.00013354570068     0.29351301431581     0.28069011938406     0.42579686630013
                 144    -0.00028577877073     0.00156192545408     0.00116858997452     0.29731206509386     0.27881326754585     0.42387466736029
                 145     0.00027886648114    -0.00029321762740    -0.00058464967452     0.29920688713802     0.27569234248526     0.42510077037673
                 146     0.00043803860828     0.00173846820517     0.00016112871227     0.29688406905319     0.27663614772616     0.42647978322065
                 147     0.00047110865331    -0.00251083963546     0.00189081716377     0.29773018519418     0.27546811372416     0.42680170108166
                 148     0.00042058469443    -0.00039810468087    -0.00053793851574     0.29764315297761     0.27545638886270     0.42690045815969
                 149    -0.00020201032343     0.00051562223667     0.00015474257407     0.29966904859197     0.27302470421435     0.42730624719369
                 150     0.00018058532113     0.00089384661972     0.00043672385960     0.29888282362531     0.27441830219967     0.42669887417502
                 151    -0.00002505869425    -0.00126671486654     0.00017771184922     0.29509478253395     0.27890393586521     0.42600128160084
                 152    -0.00000663729205    -0.00229120172294    -0.00011349074202     0.29795447669989     0.27575290224488     0.42629262105522
                 153     0.00010771140531     0.00242092066339    -0.00064783667524     0.30085177588186     0.27141821173148     0.42773001238665
                 154    -0.00060684113675     0.00085006249488     0.00015917404356     0.29740739964598     0.27523888429043     0.42735371606358
                 155     0.00095118642053    -0.00244019426504     0.00071866323159     0.29673449476729     0.27576825015155     0.42749725508117
                 156     0.00010482041816     0.00128714227556     0.00063813793677     0.29599682025052     0.27639508393142     0.42760809581806
                 157    -0.00003051426448     0.00047623578296    -0.00034440336363     0.29789656627597     0.27387617912358     0.42822725460045
                 158     0.00032346656058    -0.00265091639792     0.00074148336726     0.29715330222182     0.27478681406890     0.42805988370928
                 159     0.00055216936841     0.00116042871554     0.00071826466039     0.29768035216040     0.27437211695813     0.42794753088146
                 160    -0.00027694392185    -0.00250368207914    -0.00002401555537     0.29638293939326     0.27469229365046     0.42892476695629
                 161    -0.00094420960463     0.00187195409549     0.00061008983434     0.30183221591372     0.26859214613747     0.42957563794881
                 162     0.00005495200745     0.00226656660113     0.00030657029536     0.29915376512844     0.27141723360309     0.42942900126847
                 163     0.00027209035368    -0.00128710203589    -0.00064931372749     0.30125044019582     0.26863865035090     0.43011090945328
                 164     0.00017864379970     0.00153875567438     0.00012244278033     0.30099138826835     0.26858047912507     0.43042813260657
                 165    -0.00023946370702    -0.00088837545459    -0.00014385461430     0.29893025668045     0.27196329503218     0.42910644828737
                 166     0.00031949848624    -0.00183442622207    -0.00007232508401     0.29735108257871     0.27238863316679     0.43026028425450
                 167     0.00066094570081     0.00103968674200    -0.00093679423743     0.30173409905162     0.26663218495414     0.43163371599423
                 168     0.00018021322977     0.00061834892874     0.00010687599188     0.30252336266754     0.26634966817784     0.43112696915462
                 169     0.00033059113979     0.00029547158894     0.00106854397308     0.29664921517045     0.27391861416582     0.42943217066373
                 170    -0.00003508333947    -0.00149547037951    -0.00134551472400     0.29768271134687     0.27328093091613     0.42903635773699
                 171     0.00004223059908     0.00103746208107    -0.00005817504842     0.30191572002084     0.26773517492348     0.43034910505568
                 172    -0.00008111171024     0.00145507803954    -0.00028062996755     0.29713602387372     0.27118160524610     0.43168237088018
                 173    -0.00011821035933     0.00102300008650     0.00040549472776     0.30404855644562     0.26280617990402     0.43314526365036
                 174    -0.00064478159990     0.00041871321184    -0.00107327914245     0.30561570253208     0.26196462050058     0.43241967696733
                 175     0.00020042399200    -0.00192607669135     0.00115425065120     0.29703354893136     0.27308551791744     0.42988093315120
                 176    -0.00054418311491     0.00201728426296     0.00074302572068     0.29849622530464     0.27148871303769     0.43001506165767
                 177    -0.00009445843032    -0.00214315760021    -0.00056286798170     0.30229575885494     0.26638284433562     0.43132139680945
                 178     0.00022061142662     0.00134443627312     0.00040869629370     0.29944771707537     0.26859203075912     0.43196025216551
                 179     0.00022338368652    -0.00146557946769    -0.00042955981279     0.30149222848902     0.26595697635876     0.43255079515222
                 180     0.00074969039593    -0.00200325039673    -0.00018692444809     0.30387090533287     0.26404744130833     0.43208165335879
                 181     0.00040160700878     0.00165800653501     0.00075830099675     0.29851493437337     0.27098658699190     0.43049847863473
                 182    -0.00022390338017     0.00028727844143    -0.00054482127912     0.29869100473661     0.27120938364850     0.43009961161489
                 183     0.00031116761976     0.00108095644241     0.00030498352413     0.30354389682321     0.26542433430502     0.43103176887177
                 184    -0.00040463506359     0.00059562980239     0.00122781606396     0.29856600620541     0.26937753066598     0.43205646312861
                 185     0.00042289141460     0.00056419315986    -0.00018474961240     0.30717532041494     0.25898337673593     0.43384130284914
                 186     0.00041424076604     0.00190870003052     0.00057979541879     0.30711995221477     0.25891468844999     0.43396535933525
                 187     0.00018661413897    -0.00275130852184    -0.00091707815305     0.29760474461860     0.27123796193420     0.43115729344720
                 188     0.00063323638596     0.00107745720099    -0.00046706083265     0.30311453071164     0.26697939571520     0.42990607357315
                 189     0.00052359980174     0.00038191216499     0.00117208732551     0.29927401323395     0.27027313217391     0.43045285459214
                 190     0.00005696081476    -0.00246763306952    -0.00020079806790     0.29847084356837     0.27080232554412     0.43072683088750
                 191    -0.00019982890424    -0.00023140407894    -0.00069302169382     0.30305489412724     0.26549352743312     0.43145157843964
                 192    -0.00054921948127    -0.00071816008439     0.00011496637597     0.30100092882785     0.26675743967006     0.43224163150210
                 193     0.00015460389897     0.00281342248762    -0.00059962617177     0.30010127121097     0.26863071191152     0.43126801687751
                 194    -0.00044741642956     0.00031501796192     0.00034960255985     0.30267359152748     0.26684187300815     0.43048453546437
                 195    -0.00011886697376    -0.00000984192283     0.00001131344855     0.30063930134479     0.26877078576322     0.43058991289199
                 196     0.00009053311542    -0.00019772441227     0.00021052598526     0.30228088887021     0.26673594157793     0.43098316955186
                 197    -0.00031120166321    -0.00136754237088    -0.00065705059372     0.29978466233982     0.26888820524699     0.43132713241319
                 198     0.00073118519812     0.00080515016376     0.00040347060128     0.29653304827854     0.27198186533870     0.43148508638277
                 199     0.00041308557588     0.00113147992253     0.00002019397568     0.30353472180061     0.26567098093341     0.43079429726598
                 200    -0.00002734850307    -0.00047682829344     0.00098620067195     0.30391410642050     0.26537232681863     0.43071356676087
                 201    -0.00060977338991    -0.00055398693500     0.00140761467634     0.30061702378167     0.26928787917837     0.43009509703996
                 202    -0.00041131165436    -0.00283114054669    -0.00001814528529     0.29828645093906     0.27171961878022     0.42999393028072
                 203     0.00007390476834     0.00155109462259     0.00019741075183     0.30358333392540     0.26481034457895     0.43160632149565
                 204    -0.00010095005234     0.00267708110458    -0.00085719879829     0.30331224377140     0.26437064783750     0.43231710839111
                 205     0.00000450965538    -0.00081168217507     0.00023194786568     0.30307160758506     0.26466706499731     0.43226132741763
                 206    -0.00046659388716    -0.00242156875100     0.00006551866051     0.30499239029867     0.26261444271382     0.43239316698751
                 207    -0.00036604576225     0.00031942737216     0.00017814046457     0.30018533680461     0.26845338295222     0.43136128024318
                 208    -0.00019861071789     0.00096683427256    -0.00035933285422     0.29934611714833     0.26973705522316     0.43091682762852
                 209    -0.00001457163400     0.00016126507093    -0.00080652909822     0.29985130395285     0.26901297796291     0.43113571808425
                 210    -0.00012072699839    -0.00109613452796    -0.00078841651688     0.30041025449698     0.26862988353707     0.43095986196595
                 211    -0.00028046898807     0.00141104981680     0.00090385995582     0.30233067741562     0.26679444687199     0.43087487571240
                 212     0.00013410529567    -0.00210163187326     0.00107514749147     0.30131147439248     0.26702839532336     0.43166013028416
                 213    -0.00014366915439     0.00243227138976    -0.00049845476584     0.30451178779773     0.26531060500912     0.43017760719316
                 214     0.00009620418888     0.00050848349388     0.00076015149150     0.30030035493144     0.26807967715565     0.43161996791291
                 215     0.00074460883100    -0.00259959640721    -0.00005353091794     0.30644628208770     0.25941005679472     0.43414366111759
                 216     0.00035001387936     0.00213869892156     0.00096442951896     0.30435891080374     0.26091946327257     0.43472162592369
                 217     0.00026942324428     0.00114883780734     0.00031111348105     0.30643896073119     0.25750708426938     0.43605395499943
                 218    -0.00021370249736    -0.00006981239744     0.00075689928594     0.30956968088236     0.25514733914683     0.43528297997081
                 219     0.00040412601390    -0.00005442801731    -0.00057676502934     0.29740073483770     0.27040620165668     0.43219306350562
                 220     0.00009086119502     0.00031271914130     0.00073748968462     0.30049084265802     0.26844991909709     0.43105923824490
                 221     0.00003093269126    -0.00089682385064     0.00021485667824     0.30407136827141     0.26369034534597     0.43223828638262
                 222    -0.00049294256888    -0.00062284612977    -0.00004962348255     0.29831366841438     0.26814910013318     0.43353723145244
                 223     0.00022611750957     0.00022057070804    -0.00008772356463     0.30539377181664     0.25898330505812     0.43562292312524
                 224    -0.00047018748670     0.00037741870752    -0.00081524613556     0.30507468992611     0.25840224554791     0.43652306452597
                 225     0.00005908541783     0.00069781789453     0.00054804822435     0.30558137896344     0.26089624738877     0.43352237364779
                 226    -0.00001665205646     0.00074108611866    -0.00037462052324     0.30333730367604     0.26284478721046     0.43381790911350
                 227     0.00048765483731    -0.00239738194328     0.00050674976735     0.30760111956493     0.25732303292682     0.43507584750825
                 228    -0.00049511794763     0.00133568255658     0.00046526870342     0.30552148151016     0.25844591087011     0.43603260761973
                 229    -0.00072207909725    -0.00124603960491    -0.00044492350649     0.30763526376536     0.25552237059254     0.43684236564210
                 230    -0.00075258794576     0.00105111395500    -0.00131492956345     0.30826738958452     0.25512961186495     0.43660299855054
                 231    -0.00006604755770    -0.00019406017611     0.00006833117131     0.30370785299442     0.26068984197989     0.43560230502568
                 232    -0.00056581051196    -0.00023055119132    -0.00060896877940     0.30541623630546     0.25952740106045     0.43505636263409
                 233     0.00006282401631    -0.00067350038339    -0.00038190510613     0.30665251095142     0.25890968627092     0.43443780277766
                 234    -0.00006252605271     0.00308303767519     0.00049325550228     0.30344488368365     0.26082839165636     0.43572672465999
                 235    -0.00043321311528    -0.00122690015142    -0.00091989254336     0.31025184551988     0.25212332385950     0.43762483062062
                 236     0.00026460943837    -0.00094253996755     0.00070207380127     0.31265292466360     0.25070563911084     0.43664143622556
                 237     0.00043022140383    -0.00024520311754    -0.00030014592371     0.30217746821176     0.26381352491335     0.43400900687490
                 238    -0.00101140516272     0.00136386282285    -0.00023647748372     0.30521093075101     0.26244205567798     0.43234701357101
                 239     0.00040885353151    -0.00072917977741    -0.00092673039108     0.30206106219936     0.26449552445401     0.43344341334663
                 240    -0.00099983390833    -0.00044075035854     0.00045908884024     0.30113662309428     0.26460782173350     0.43425555517222
                 241     0.00026474790398    -0.00152740388549     0.00009234050161     0.31245407141049     0.25150213475119     0.43604379383832
                 242    -0.00007804924298     0.00107497239387     0.00022613349756     0.31206681288469     0.25315152205402     0.43478166506129
                 243    -0.00003994537405    -0.00053127899572     0.00056062996850     0.30348919598395     0.26331306210108     0.43319774191498
                 244    -0.00083992316312     0.00122265578615     0.00075103989997     0.30393803868987     0.26269209070822     0.43336987060191
                 245    -0.00026510018246    -0.00136365953014     0.00054632562556     0.30685426019489     0.25775571141350     0.43539002839161
                 246     0.00009561790339    -0.00036700341305    -0.00068077088205     0.30358381493188     0.26062741111461     0.43578877395351
                 247    -0.00028688568175     0.00052759155220     0.00078288589076     0.30637198719512     0.25815201930203     0.43547599350285
                 248    -0.00095599415326     0.00148093550974    -0.00073617557885     0.30560505242470     0.25874885182061     0.43564609575470
                 249     0.00043550423175     0.00113719014335    -0.00028649885419     0.31418381569488     0.24889702413529     0.43691916016982
                 250    -0.00011195165300    -0.00273183778082    -0.00009830755858     0.31408638716171     0.24990577952534     0.43600783331296
                 251     0.00033295771697     0.00144120767044     0.00011641628714     0.30367141409104     0.26114327055110     0.43518531535786
                 252    -0.00001728146580     0.00411255713776     0.00014120961345     0.30636187983534     0.25958119963722     0.43405692052744
                 253    -0.00032161029335    -0.00364012329712    -0.00050432104467     0.30392954615434     0.26038899163904     0.43568146220661
                 254     0.00016296562004    -0.00268026992830    -0.00079011577610     0.30358359937921     0.26065221538889     0.43576418523190
                 255     0.00006784295018     0.00199485681459     0.00016161298603     0.30653641399154     0.25715588475505     0.43630770125342
                 256    -0.00033391976385    -0.00005028623854     0.00050534624603     0.30910926372547     0.25518488771290     0.43570584856163
                 257     0.00022169405504    -0.00257355903197    -0.00075210966292     0.30227500239439     0.26320305126467     0.43452194634094
                 258     0.00067593497741     0.00184179105576    -0.00027100986060     0.30524225763930     0.26128900336066     0.43346873900004
                 259     0.00049703548614    -0.00157125530307     0.00005937380036     0.30178058241720     0.26490708075869     0.43331233682411
                 260    -0.00037304284096     0.00126765119875     0.00057198617917     0.29554623206461     0.26973716381998     0.43471660411541
                 261     0.00034465786710    -0.00243074782674    -0.00121000652420     0.31178355867236     0.25064837029591     0.43756807103173
                 262     0.00019495649377    -0.00141253376754     0.00027838823461     0.31043359563160     0.25143095572622     0.43813544864218
                 263     0.00005027646978     0.00198102178619     0.00003926193526     0.30187124852068     0.26353768021321     0.43459107126611
                 264     0.00009709773313    -0.00023137986367     0.00034666871002     0.30298075932536     0.26222867083677     0.43479056983787
                 265     0.00018405419826    -0.00177202161943     0.00004632159165     0.31262070581138     0.25196378624838     0.43541550794024
                 266     0.00032079581536    -0.00083478170579    -0.00022083630063     0.30842471469052     0.25442735331028     0.43714793199920
                 267     0.00033168706901     0.00129495407037    -0.00089336432162     0.31269135714509     0.24815202211483     0.43915662074009
                 268    -0.00094530128013     0.00016294428755     0.00048735228110     0.31241738168017     0.24893085344206     0.43865176487778
                 269     0.00010964131894     0.00061090323732    -0.00164191034207     0.30363453265295     0.26050479694017     0.43586067040688
                 270     0.00019060216406    -0.00421821448797     0.00060431924383     0.30537863254243     0.25882938204373     0.43579198541384
                 271     0.00034214193189     0.00167514293961     0.00060038415695     0.31275762058944     0.24946915310618     0.43777322630438
                 272    -0.00049203320278     0.00021456567826    -0.00012986933517     0.30616376607005     0.25453123745957     0.43930499647038
                 273     0.00018971787799     0.00051232035004     0.00042499966644     0.31735540311342     0.24226618232340     0.44037841456318
                 274    -0.00006656591528     0.00049016116945     0.00001481740780     0.31621790913487     0.24327011738819     0.44051197347694
                 275    -0.00027095084145    -0.00046736089742     0.00077173969949     0.30640987051787     0.25402740055693     0.43956272892520
                 276     0.00029526851903    -0.00047490698791    -0.00015195198891     0.31061559267034     0.25177136752460     0.43761303980507
                 277    -0.00055665078538     0.00120065806661     0.00022890011647     0.31154268350812     0.25098783796507     0.43746947852681
                 278     0.00022866753052     0.00027466184864     0.00085938814682     0.30545931857075     0.25520035951355     0.43934032191570
                 279     0.00031868763773    -0.00144051590702    -0.00020452099608     0.32447223904611     0.23418800259385     0.44133975836004
                 280     0.00001226671972     0.00038018531876    -0.00008153331330     0.32168463981293     0.23624962367898     0.44206573650809
                 281     0.00018279418967    -0.00092482976774    -0.00040374061160     0.30908002772540     0.25148069956358     0.43943927271102
                 282    -0.00031509444633    -0.00089480128276    -0.00021065135274     0.31426835200088     0.24738456485952     0.43834708313959
                 283     0.00049052907542     0.00191042648663     0.00076327378498     0.31238765274139     0.24894390521345     0.43866844204516
                 284    -0.00086034505573    -0.00032619394984    -0.00012830857706     0.31080767298738     0.24956547610512     0.43962685090750
                 285    -0.00041097662636    -0.00105048413039    -0.00017859341225     0.31452353659931     0.24420088858525     0.44127557481543
                 286    -0.00043845275040    -0.00029855996368    -0.00035771477044     0.31758516945000     0.24213858592514     0.44027624462486
                 287     0.00058695935167    -0.00019982169851    -0.00022783956266     0.30724635042802     0.25537824178282     0.43737540778916
                 288     0.00004401690707     0.00057374399346     0.00019274676257     0.31073243634886     0.25216211125685     0.43710545239430
                 289     0.00011350625890     0.00133092344985    -0.00037224020316     0.31060037106414     0.25104015713132     0.43835947180454
                 290    -0.00034305927221    -0.00048954907343     0.00113168713073     0.30513050027153     0.25537280640339     0.43949669332508
                 291     0.00045142194434    -0.00116235746382    -0.00029682054984     0.31586583177705     0.24359804553675     0.44053612268620
                 292    -0.00008805469360     0.00077647691636     0.00033406655254     0.31455619398591     0.24421431035873     0.44122949565536
                 293     0.00066186663870    -0.00047348878404     0.00036866644213     0.31582639621686     0.24289856837986     0.44127503540328
                 294     0.00005173443529    -0.00233162162676    -0.00067230048009     0.31451245335867     0.24414578986753     0.44134175677380
                 295     0.00038842399736     0.00029714932092     0.00088335323487     0.31565162952065     0.24383916419577     0.44050920628358
                 296    -0.00024101405486     0.00031823345641     0.00040154771789     0.31275700813424     0.24669567577736     0.44054731608841
                 297    -0.00003978181040     0.00021767153848    -0.00036202522995     0.31921496364647     0.23919791741320     0.44158711894033
                 298     0.00027363207238    -0.00028913096054    -0.00038078369244     0.31022090104012     0.24536637193473     0.44441272702515
                 299     0.00024980115083     0.00240093060243    -0.00015673600613     0.34462136265609     0.21387099258608     0.44150764475783
                 300    -0.00073784958664    -0.00256637604965    -0.00009913318710     0.27433706096454     0.26214695196957     0.46351598706589
 l=         400
                   1     0.00107517654293     0.00095339536276     0.00130842221613     0.20240046934365     0.34938132756465     0.44821820309170
                   2     0.00003969734263    -0.00256533376046     0.00060910543206     0.32745221484025     0.26438755909574     0.40816022606401
                   3    -0.00024029044735     0.00143173762092    -0.00098278859727     0.28846535888124     0.29591640031115     0.41561824080761
                   4     0.00106933835275    -0.00056521695747     0.00124843202523     0.29756648844980     0.28908799396581     0.41334551758439
                   5    -0.00100783012903     0.00062668696676    -0.00018242261854     0.29803598128885     0.28727938515050     0.41468463356065
                   6     0.00021299498826    -0.00016621807275     0.00072150001237     0.29897487324958     0.28553729797166     0.41548782877875
                   7     0.00066160156689     0.00106469196782    -0.00075011701722     0.29436772016428     0.29178215692664     0.41385012290908
                   8     0.00007080970541    -0.00207474182553     0.00080079745000     0.29536129679860     0.29117784313477     0.41346086006663
                   9     0.00023482763695     0.00233472249204    -0.00113239534082     0.29896059944962     0.28624304482846     0.41479635572193
                  10    -0.00015141408881    -0.00089264151018     0.00191967589754     0.29543558131902     0.28852757054235     0.41603684813863
                  11     0.00103649524881    -0.00057284739023     0.00019762391966     0.29581257415452     0.28708890147795     0.41709852436752
                  12     0.00075852681752     0.00117488052265     0.00101831953615     0.29615723850695     0.28705631837562     0.41678644311743
                  13    -0.00043642321290     0.00150872722696     0.00017937808514     0.29543736264202     0.28898030097030     0.41558233638768
                  14     0.00019836229212    -0.00044493290086     0.00049906228674     0.29516595613936     0.28951913344237     0.41531491041827
                  15    -0.00027034144628    -0.00246839073594     0.00068417982501     0.29605850690401     0.28729427998607     0.41664721310992
                  16    -0.00019775309813    -0.00152557557689    -0.00044877480095     0.29546231040579     0.28709388293355     0.41744380666066
                  17    -0.00096398099127     0.00202725683899    -0.00030714983301     0.29669038063437     0.28546850063040     0.41784111873523
                  18    -0.00089388139521    -0.00126568739538    -0.00053835660459     0.29708841163407     0.28622444633299     0.41668714203294
                  19     0.00088902854517     0.00197169438060     0.00055053432419     0.29412034811503     0.29078780926979     0.41509184261518
                  20    -0.00007741830807    -0.00028009673165     0.00092963128870     0.29700917904891     0.28820335433646     0.41478746661463
                  21    -0.00008894187064    -0.00046226072982     0.00010544592078     0.29519364597957     0.29004811367389     0.41475824034655
                  22     0.00011390533484    -0.00224338756331    -0.00066166059652     0.29350512425794     0.29056161834931     0.41593325739275
                  23    -0.00051664992587     0.00138948980721     0.00006931768259     0.29678750560678     0.28704853593321     0.41616395846001
                  24     0.00022113351361    -0.00075464102757     0.00063271941659     0.29736343561216     0.28649795864664     0.41613860574120
                  25     0.00114132858125     0.00036730215473    -0.00068516691896     0.29445986344102     0.29089253966171     0.41464759689727
                  26     0.00032251018468    -0.00185985882776     0.00169618656646     0.29486583085554     0.28960250535055     0.41553166379391
                  27    -0.00006126235396     0.00140068992868    -0.00085392803949     0.29592472531768     0.28749250385010     0.41658277083221
                  28     0.00013903029468     0.00111500098360    -0.00023640769455     0.29411316515679     0.28815236847307     0.41773446637014
                  29    -0.00058035108252    -0.00344623974225    -0.00085619545252     0.29710530674559     0.28470107385388     0.41819361940053
                  30    -0.00034058933850     0.00333885196755     0.00061505122258     0.29770956441625     0.28472855616514     0.41756187941861
                  31     0.00069881547485    -0.00088227047961     0.00040661045968     0.29576928114652     0.28860391364995     0.41562680520353
                  32     0.00026708219955    -0.00290757993675    -0.00057420941103     0.29618215947847     0.28904957604260     0.41476826447893
                  33    -0.00061235020454     0.00107628717202     0.00081007451697     0.29465561135571     0.28984338851046     0.41550100013383
                  34    -0.00024726783537     0.00129136646468     0.00075989612890     0.29503911064736     0.28797080211910     0.41699008723354
                  35    -0.00038514289446    -0.00051134470283    -0.00089602359419     0.29615465805251     0.28698321530462     0.41686212664287
                  36     0.00052053348970     0.00032255190458    -0.00099779933067     0.29698789763747     0.28688532121205     0.41612678115048
                  37     0.00090523520999    -0.00067695688902     0.00134610352268     0.29598966564760     0.28930093520035     0.41470939915204
                  38    -0.00012734569688    -0.00002639264484    -0.00012624764295     0.29536331619068     0.28941536738992     0.41522131641940
                  39     0.00001160730909    -0.00053248888650    -0.00033306107689     0.29634386996682     0.28782697103526     0.41582915899792
                  40     0.00011232681012    -0.00301154463996    -0.00157967512487     0.29533523466701     0.28838880405903     0.41627596127396
                  41     0.00066802342644     0.00163464542756     0.00127631564898     0.29467745721787     0.28931976029138     0.41600278249075
                  42    -0.00072274905395     0.00060972134669     0.00101745186281     0.29648631281539     0.28770052953142     0.41581315765318
                  43     0.00047713343787    -0.00076734662164    -0.00156492407849     0.29630907285644     0.28712083216086     0.41657009498270
                  44    -0.00021739684739     0.00456779566651     0.00039537020114     0.29594593398132     0.28833769486617     0.41571637115251
                  45    -0.00054617570945    -0.00306048659529    -0.00042405886114     0.29544390844674     0.29007021067391     0.41448588087934
                  46    -0.00106483426244    -0.00106321896802     0.00108895026159     0.29652132400388     0.28846021669357     0.41501845930255
                  47    -0.00009259700625     0.00240388444690     0.00004957423551     0.29699969665147     0.28675360811764     0.41624669523089
                  48     0.00005316908420    -0.00218540223644     0.00075741138907     0.29508735278595     0.28831852340694     0.41659412380711
                  49    -0.00040248775987    -0.00133700261612     0.00010651130055     0.29524335081962     0.28814150068586     0.41661514849452
                  50     0.00092160165177     0.00011995801916     0.00075502987292     0.29587746646477     0.28812404042524     0.41599849310998
                  51    -0.00059872563189    -0.00055643059970     0.00027821179859     0.29596979840425     0.28907791919434     0.41495228240140
                  52    -0.00012902905792     0.00006044410495     0.00043427928652     0.29607524302093     0.28827400933047     0.41565074764860
                  53    -0.00052882504906     0.00003395094539     0.00104113321374     0.29690743805522     0.28686366829122     0.41622889365355
                  54     0.00029770691345    -0.00217444302106    -0.00074750451605     0.29497288873774     0.28872093212509     0.41630617913717
                  55     0.00015622845352     0.00255068347216    -0.00029415592470     0.29276783262962     0.29031801638739     0.41691415098299
                  56    -0.00024077283661    -0.00178964732262     0.00020156697624     0.29587785481562     0.28857677339598     0.41554537178841
                  57     0.00039445677219    -0.00270291269295     0.00043663331272     0.29606031041979     0.29017453421178     0.41376515536843
                  58     0.00044920280833     0.00184076003108    -0.00061079272782     0.29562252727793     0.29160971190801     0.41276776081406
                  59     0.00054023539475    -0.00157565659767     0.00070818407985     0.29661941923772     0.28859720249914     0.41478337826314
                  60    -0.00006654124464    -0.00020285247906     0.00026429874014     0.29680656875545     0.28722736046819     0.41596607077636
                  61    -0.00007466814277     0.00164842046872     0.00012480339693     0.29666775242183     0.28838701953676     0.41494522804140
                  62    -0.00029547989124    -0.00197744173775    -0.00087237463405     0.29661666390547     0.28883068371537     0.41455265237916
                  63    -0.00036836090824    -0.00123125497862    -0.00072144957211     0.29588101741984     0.28992512640211     0.41419385617804
                  64    -0.00062107184722    -0.00026855825942     0.00048975086963     0.29508693885260     0.28933048259029     0.41558257855711
                  65    -0.00059886264653    -0.00051131383278    -0.00073692963116     0.29607510368985     0.28797120873901     0.41595368757113
                  66    -0.00088932866997     0.00067060226761     0.00057506592882     0.29600721728006     0.28794948431641     0.41604329840353
                  67    -0.00017931471978    -0.00092683603359    -0.00097840150822     0.29599930304375     0.28663608172289     0.41736461523335
                  68    -0.00011725190449     0.00163197761961     0.00098358734516     0.29358138867802     0.28895242990459     0.41746618141738
                  69     0.00000133555410     0.00005641960269    -0.00156640544055     0.29582607938081     0.29003210727879     0.41414181334040
                  70     0.00089868107577    -0.00236911522273     0.00114824140052     0.29716809038800     0.28731893771022     0.41551297190177
                  71     0.00032598930587     0.00275772363730    -0.00088387455338     0.29559197039258     0.28763711144016     0.41677091816726
                  72    -0.00058957176352    -0.00027488838459     0.00048416492362     0.29261830868188     0.29012404440053     0.41725764691759
                  73     0.00030808766568    -0.00299335016936     0.00057559633054     0.29664395870763     0.28573844568688     0.41761759560548
                  74     0.00018941553733     0.00349920550908    -0.00098017611879     0.29920433929551     0.28486547588293     0.41593018482156
                  75     0.00010831580064    -0.00124822855553     0.00156582540594     0.29405853686127     0.29101042306923     0.41493104006950
                  76    -0.00012728697069    -0.00317942218248    -0.00083314184239     0.29595686748239     0.29036015904245     0.41368297347516
                  77    -0.00023137383421     0.00397855364872    -0.00036281517928     0.29728290805005     0.28744042556128     0.41527666638867
                  78    -0.00071717134456    -0.00099635508166     0.00040438561098     0.29683634974378     0.28743672776638     0.41572692248984
                  79     0.00036468811554    -0.00089583696823    -0.00019237752178     0.29787396312254     0.28556907121760     0.41655696565986
                  80    -0.00019415304498    -0.00074348388369    -0.00071323778707     0.29788713488524     0.28649199100674     0.41562087410802
                  81    -0.00056516275617     0.00221309378633    -0.00149828170961     0.29471267959823     0.29012205772432     0.41516526267745
                  82    -0.00014194035584     0.00222172423392     0.00060078524777     0.29557243930149     0.29004991500240     0.41437764569611
                  83    -0.00015106556754     0.00038077235230    -0.00059383180463     0.29763991000644     0.28552135669068     0.41683873330288
                  84    -0.00054821968411    -0.00485890117744     0.00101772572203     0.29537304846377     0.28706187156650     0.41756507996973
                  85     0.00017938369508     0.00048264235515    -0.00072001786499     0.29618977474116     0.28685446247698     0.41695576278186
                  86     0.00010128571948     0.00231153822281     0.00134503142755     0.29606505814041     0.28742056161176     0.41651438024783
                  87     0.00009395070210    -0.00121189956884     0.00087370760439     0.29602445978950     0.28735746246190     0.41661807774860
                  88     0.00028795288208     0.00166453423158     0.00008934600394     0.29290844327496     0.28864539570872     0.41844616101633
                  89    -0.00020500324596    -0.00214138917089    -0.00046327040747     0.29515214885094     0.28787946343471     0.41696838771435
                  90    -0.00024842299959     0.00171339336095    -0.00003883590494     0.29626516695805     0.28685821784319     0.41687661519876
                  91    -0.00000545430555    -0.00216154772449    -0.00101771106434     0.29423848878676     0.28829177607940     0.41746973513384
                  92     0.00026944227947    -0.00158009182252     0.00086745489423     0.29653481242942     0.28720188620748     0.41626330136310
                  93     0.00021813930761     0.00141974678601     0.00006123200278     0.29460303796916     0.29007215644347     0.41532480558737
                  94    -0.00021220414120     0.00141723564293     0.00120119742480     0.29607976054172     0.28813452417122     0.41578571528706
                  95    -0.00033550099919     0.00053188749088    -0.00021396046893     0.29536901821507     0.28924959138868     0.41538139039625
                  96     0.00051231778218    -0.00004024570114     0.00057028466249     0.29508888096298     0.28862214277989     0.41628897625713
                  97    -0.00011690553288     0.00001719046777    -0.00052501065612     0.29620368259553     0.28809541780033     0.41570089960414
                  98    -0.00004154624866    -0.00131405495992    -0.00003580604267     0.29499545553775     0.28871812159705     0.41628642286520
                  99     0.00011092560545    -0.00297696439134     0.00004716982315     0.29624727969465     0.28751301350033     0.41623970680502
                 100     0.00043035518431     0.00182773781213    -0.00186988939422     0.29559935382998     0.28832913964545     0.41607150652457
                 101     0.00026839426439     0.00027202504284     0.00062535923933     0.29547470255581     0.28757803455478     0.41694726288941
                 102     0.00027584761123     0.00070287409661    -0.00064348215487     0.29510559060907     0.28776962263981     0.41712478675112
                 103     0.00100043171275    -0.00074587543120     0.00130833105575     0.29385139010104     0.28874131762315     0.41740729227581
                 104     0.00091458762227    -0.00019366659907    -0.00092797918797     0.29630342238430     0.28729572420648     0.41640085340922
                 105     0.00006439338054     0.00130043104521     0.00106162155931     0.29485042839157     0.28965601300680     0.41549355860163
                 106    -0.00046031543190    -0.00134786739306    -0.00089440592893     0.29356103429548     0.29080051505564     0.41563845064888
                 107     0.00021169630132     0.00159597540590    -0.00117817114275     0.29782928048099     0.28476252148769     0.41740819803132
                 108     0.00025773558954    -0.00171935021354     0.00013902925751     0.29409606511411     0.28824175041792     0.41766218446797
                 109     0.00077280431463    -0.00107516450644     0.00074029229049     0.29547271383976     0.28661482937498     0.41791245678526
                 110     0.00033304601902    -0.00018728299649    -0.00018998102154     0.29727603346173     0.28500795769537     0.41771600884290
                 111     0.00028466041429     0.00177148675001     0.00093232669821     0.29592063798046     0.28657400544092     0.41750535657862
                 112    -0.00073735319581    -0.00025259650833    -0.00075370100126     0.29672661468150     0.28605006636425     0.41722331895425
                 113     0.00039191723819    -0.00036470460348     0.00021339828702     0.29536473304656     0.28884839269326     0.41578687426019
                 114    -0.00078647561090     0.00177546867586     0.00015607048990     0.29620769299456     0.28851174891379     0.41528055809165
                 115     0.00048095068919    -0.00140506765941     0.00072104261423     0.29685530538932     0.28650674361355     0.41663795099713
                 116    -0.00008498201228    -0.00002759106273    -0.00019923186008     0.29349629834640     0.28994302935402     0.41656067229958
                 117    -0.00017244451860     0.00022242415002    -0.00034996816921     0.29516554112084     0.28838960228254     0.41644485659662
                 118     0.00009850073416     0.00412457058362     0.00105809303374     0.29826339778035     0.28506389101867     0.41667271120098
                 119     0.00012164037087    -0.00041451256486     0.00138950709991     0.29376965596053     0.29091493558744     0.41531540845203
                 120    -0.00017119294301    -0.00567143742962    -0.00101461464520     0.29665771249227     0.28811740064635     0.41522488686137
                 121     0.00034178076431     0.00107200707217    -0.00008246946179     0.29573240564198     0.28767553378569     0.41659206057233
                 122     0.00016413356989     0.00330900341212     0.00112088369265     0.29456332784063     0.28822348625329     0.41721318590608
                 123     0.00020998494111    -0.00065071387587    -0.00069062038119     0.29596439811778     0.28763564839086     0.41639995349135
                 124    -0.00014025993137    -0.00062191594956    -0.00136402724097     0.29629515240241     0.28756896985112     0.41613587774648
                 125     0.00020534435112     0.00178725982136    -0.00205121950615     0.29597180569815     0.28947817342086     0.41455002088099
                 126     0.00045114649264     0.00160249121860     0.00044806051676     0.29578199543725     0.29008397349697     0.41413403106578
                 127    -0.00030127384079    -0.00115106611322    -0.00073082105952     0.29566293200110     0.28898208032102     0.41535498767788
                 128    -0.00077218430245     0.00255515010833    -0.00009747470831     0.29464436833850     0.28948770748405     0.41586792417745
                 129    -0.00055357213957    -0.00226645042911     0.00078655900329     0.29555238974670     0.28744814548760     0.41699946476571
                 130    -0.00015942002351    -0.00066481086051    -0.00040989392030     0.29626494669987     0.28716778896190     0.41656726433823
                 131     0.00052891018823    -0.00028059336696    -0.00030155967808     0.29553788595893     0.28942391890444     0.41503819513663
                 132     0.00063392939766    -0.00059243903702     0.00035209310375     0.29566990789846     0.29002502353335     0.41430506856819
                 133     0.00062573973099    -0.00060619336092     0.00036222819977     0.29683508697570     0.28817232220464     0.41499259081966
                 134    -0.00059935167763     0.00088935669799     0.00002504533879     0.29262753555848     0.29057775070168     0.41679471373983
                 135    -0.00024702300977    -0.00149618335744     0.00051106360046     0.29488641238045     0.28705520594667     0.41805838167289
                 136     0.00019774166201     0.00053026306823    -0.00129226203724     0.29544859648369     0.28648592049878     0.41806548301753
                 137    -0.00046225752893    -0.00076246356237     0.00019382985637     0.29584490411539     0.28656754929356     0.41758754659106
                 138     0.00054833587286     0.00057226851162     0.00020156081231     0.29550524681689     0.28726101300621     0.41723374017690
                 139     0.00047820247495     0.00008160054669     0.00092633714513     0.29385760367205     0.28830664437129     0.41783575195665
                 140     0.00009085726769     0.00112821023544    -0.00165277676463     0.29463665791835     0.28762360975988     0.41773973232177
                 141    -0.00021621093921    -0.00066683302144     0.00082273787404     0.29624080077039     0.28560867013912     0.41815052909049
                 142    -0.00007049706611    -0.00312664883505     0.00019921508909     0.29549767175728     0.28592884941133     0.41857347883139
                 143     0.00018648139438     0.00010956121334     0.00039850646957     0.29453550440102     0.28827487417114     0.41718962142784
                 144     0.00004448194241     0.00076892663672    -0.00039555591910     0.29630991273310     0.28791421298812     0.41577587427878
                 145    -0.00013037743219    -0.00075329621628     0.00098027076662     0.29424867082967     0.29004231588410     0.41570901328622
                 146     0.00062264335988     0.00252404801442    -0.00009171032456     0.29535491247229     0.28900950140222     0.41563558612549
                 147    -0.00009399455706    -0.00150534087993     0.00160336980062     0.29470465174831     0.28832234538506     0.41697300286663
                 148    -0.00049475936812    -0.00097804800396    -0.00189631486722     0.29302366966820     0.28919138674065     0.41778494359114
                 149    -0.00016994714055     0.00314771158500     0.00025796968052     0.29634616401555     0.28551611980202     0.41813771618243
                 150     0.00015928136314    -0.00010276145312     0.00058999495008     0.29708105842354     0.28482961184791     0.41808932972855
                 151    -0.00009685688438    -0.00160805910085    -0.00115976821659     0.29452668005812     0.28854216133601     0.41693115860588
                 152    -0.00069584907970    -0.00099966019403    -0.00007124923212     0.29485356413436     0.28876331105057     0.41638312481507
                 153    -0.00005748341492     0.00185307282019    -0.00136034158491     0.29605856740347     0.28621070244950     0.41773073014703
                 154    -0.00083458033320     0.00018303216528     0.00042044208831     0.29429216761508     0.28749027311319     0.41821755927174
                 155    -0.00007389718773     0.00061726273870     0.00003703443989     0.29537826648333     0.28651219503384     0.41810953848282
                 156     0.00078753150253     0.00083782781356    -0.00100052690614     0.29522142731583     0.28659845415899     0.41818011852518
                 157     0.00092756672546    -0.00000790561773    -0.00032900219561     0.29398668012303     0.28825143271918     0.41776188715779
                 158    -0.00029142709089    -0.00309456370592     0.00079343181413     0.29348611886196     0.28873489973053     0.41777898140751
                 159    -0.00077436902914     0.00159613152147     0.00004763945618     0.29430666162708     0.28758026832609     0.41811307004683
                 160    -0.00001596486722    -0.00213899851404     0.00013591911467     0.29392631398512     0.28722142782952     0.41885225818536
                 161    -0.00051944625464     0.00061329554956     0.00046688038810     0.29576557276168     0.28471924522835     0.41951518200996
                 162     0.00001558898226     0.00362676357205    -0.00036557558626     0.29394567611452     0.28645812029429     0.41959620359119
                 163     0.00045091199230    -0.00115098938013     0.00003571081121     0.29764833597983     0.28321443709754     0.41913722692264
                 164     0.00058556553067     0.00131812973574    -0.00007003568880     0.29779073405758     0.28263960731483     0.41956965862759
                 165    -0.00021106682374    -0.00165327287221    -0.00008466942906     0.29563140235093     0.28469764916330     0.41967094848577
                 166    -0.00007217311915    -0.00004961447823    -0.00063484363657     0.29496272578124     0.28587067398421     0.41916660023455
                 167     0.00004887463141    -0.00040967394016     0.00016509690563     0.29367319042293     0.28677574225105     0.41955106732602
                 168     0.00012386539872     0.00194637073560     0.00036393531430     0.29532970184797     0.28489273023708     0.41977756791495
                 169     0.00041915275959     0.00049173627802     0.00011954922597     0.29581549273536     0.28515676832995     0.41902773893469
                 170    -0.00043449437520    -0.00059267775490     0.00008509914103     0.29522638852637     0.28633718445011     0.41843642702352
                 171     0.00000070029105    -0.00080717469562    -0.00158361742143     0.29539086530997     0.28500932698356     0.41959980770647
                 172    -0.00023933343458     0.00243535085770     0.00091462137339     0.29489999198444     0.28509776543233     0.42000224258323
                 173    -0.00013272856972     0.00044468880427     0.00015626901214     0.29742812574358     0.28219764571946     0.42037422853696
                 174     0.00026747283967    -0.00118769562830     0.00063426169910     0.29692908483924     0.28254821840576     0.42052269675500
                 175    -0.00051347732708     0.00031576255727     0.00057569291009     0.29287510341536     0.28806964152249     0.41905525506216
                 176    -0.00047258027799     0.00095914333508    -0.00012954204575     0.29477439708192     0.28638316457504     0.41884243834304
                 177    -0.00091992914293    -0.00028611225445     0.00057367419596     0.29505600656930     0.28531265694742     0.41963133648327
                 178     0.00008560165064     0.00123176694419    -0.00081347947666     0.29325256427572     0.28675626285175     0.41999117287253
                 179     0.00060460422771    -0.00225086357063     0.00040903663529     0.29611972612971     0.28267308546585     0.42120718840443
                 180     0.00074675093548    -0.00048324503755    -0.00031394636927     0.29616027493563     0.28376742582367     0.42007229924070
                 181    -0.00067101045576    -0.00138880344895    -0.00033167662333     0.29464939686630     0.28640976625536     0.41894083687834
                 182    -0.00084344540287     0.00042576959049     0.00116963509172     0.29692297696132     0.28463614756859     0.41844087547008
                 183    -0.00002455313301     0.00216975560390     0.00013390637394     0.29659853658267     0.28350046270135     0.41990100071598
                 184     0.00027441764378    -0.00012791507487     0.00119881290849     0.29178568371900     0.28720803355561     0.42100628272539
                 185    -0.00049257941013    -0.00057139581147    -0.00137751316647     0.29849742118038     0.27975813702640     0.42174444179322
                 186     0.00029815258940     0.00279683962079     0.00118845598188     0.29816819819107     0.28037996441201     0.42145183739691
                 187    -0.00094505311943    -0.00263106607507    -0.00072252293431     0.29497549487887     0.28472470758066     0.42029979754047
                 188    -0.00021314766018     0.00229782274610     0.00049637362762     0.29721068699071     0.28379619374021     0.41899311926908
                 189     0.00010328600673    -0.00013673455973    -0.00019186627674     0.29499180945187     0.28522967635604     0.41977851419209
                 190    -0.00058485831733    -0.00093550302212     0.00086172959780     0.29457402629633     0.28594427766430     0.41948169603937
                 191    -0.00066799077696     0.00144247976739    -0.00027922099271     0.29554822530781     0.28359923214687     0.42085254254532
                 192    -0.00017337754821    -0.00261497301542    -0.00136622619107     0.29568456011165     0.28289196368719     0.42142347620115
                 193     0.00022431234851     0.00213805964235     0.00134638047743     0.29370423071562     0.28657753354469     0.41971823573969
                 194    -0.00019177856217    -0.00091239629966    -0.00135618909560     0.29568878663984     0.28566151018360     0.41864970317656
                 195    -0.00030042031720     0.00147173527165     0.00092340839482     0.29562263716103     0.28485411109854     0.41952325174043
                 196     0.00039374758067    -0.00092902758589     0.00107427217106     0.29517399361632     0.28477027067311     0.42005573571057
                 197     0.00036274272237     0.00035311998089    -0.00067820957040     0.29503867554484     0.28460193428087     0.42035939017428
                 198    -0.00038136605733    -0.00288558629723     0.00059477354521     0.29426445456237     0.28537112441894     0.42036442101869
                 199     0.00035044017730     0.00329672326317    -0.00026182246957     0.29710790788683     0.28323645768505     0.41965563442812
                 200    -0.00023940239996    -0.00051170949924     0.00061921024936     0.29668798006566     0.28264619474042     0.42066582519392
                 201    -0.00060111551520    -0.00097334127042     0.00115859508538     0.29441724675948     0.28607159225355     0.41951116098697
                 202    -0.00023841107190    -0.00483171162298    -0.00053245063895     0.29346116505587     0.28694365571960     0.41959517922453
                 203     0.00034499824642     0.00353582794643     0.00184885813394     0.29795067817075     0.28137740063248     0.42067192119677
                 204     0.00058641152463     0.00202214133580    -0.00021525722566     0.29659841994162     0.28130768353436     0.42209389652402
                 205     0.00006029634045     0.00002805427182     0.00055488584427     0.29470705118727     0.28364009858094     0.42165285023179
                 206    -0.00026702270918    -0.00039035964195    -0.00084407359801     0.29694956904255     0.28165219918368     0.42139823177377
                 207     0.00021518318341    -0.00062374437699     0.00102584104552     0.29513768984539     0.28476222916433     0.42010008099028
                 208    -0.00020570412930     0.00021757289803    -0.00028713148064     0.29449942458707     0.28547687772732     0.42002369768562
                 209    -0.00018657942351    -0.00097237977101    -0.00058750671803     0.29479546879962     0.28520939280800     0.41999513839238
                 210     0.00010238729731     0.00100482197910     0.00072159726517     0.29503193642507     0.28474761800970     0.42022044556523
                 211    -0.00006940575714     0.00046997666128    -0.00080383763566     0.29736169468848     0.28307493461013     0.41956337070138
                 212    -0.00057253134363    -0.00352384556001    -0.00044333671391     0.29698808205376     0.28344990220350     0.41956201574273
                 213    -0.00005112587921     0.00460568784801     0.00096852792687     0.29703902681671     0.28373952401246     0.41922144917083
                 214     0.00046531051519     0.00055991028846    -0.00142554700095     0.29429911275717     0.28497803135096     0.42072285589187
                 215    -0.00011033469632    -0.00384713655482     0.00065342037798     0.29690253976304     0.27997952297231     0.42311793726465
                 216     0.00067399747678     0.00261021805596     0.00003181716891     0.29640246284431     0.28157189814075     0.42202563901494
                 217    -0.00017043790574     0.00080913369042     0.00026598513099     0.29624991238304     0.28007088401253     0.42367920360444
                 218    -0.00000908321837    -0.00068158114577     0.00127109574825     0.29822640453245     0.27956881361877     0.42220478184877
                 219    -0.00062278375256     0.00143467768807    -0.00014376195993     0.29270744980801     0.28669733608212     0.42059521410987
                 220     0.00033295848523    -0.00195443418740    -0.00074079818998     0.29399697302746     0.28582834036069     0.42017468661185
                 221     0.00045501805648     0.00104229640601    -0.00068343226107     0.29669236927717     0.28226556399649     0.42104206672634
                 222     0.00029202799912    -0.00169279561841     0.00078862806631     0.29461728170009     0.28355665688666     0.42182606141324
                 223    -0.00016921067338     0.00016420389462    -0.00050940406238     0.29691727435060     0.27985251972864     0.42323020592076
                 224     0.00025736119032     0.00084775082388     0.00010077408448     0.29628049932170     0.28084277361305     0.42287672706525
                 225    -0.00011933666131     0.00048442511924     0.00041341410493     0.29429749924632     0.28467764710046     0.42102485365322
                 226     0.00016436157425     0.00064898180879     0.00032943329454     0.29426003607292     0.28488898264715     0.42085098127993
                 227    -0.00030399728064    -0.00003593169150     0.00058565168400     0.29538097099893     0.28217352862910     0.42244550037197
                 228     0.00054510983755     0.00043280979569     0.00038810816333     0.29512599436983     0.28130637041936     0.42356763521081
                 229    -0.00055511538549    -0.00108575219659     0.00073069927760     0.29491532721470     0.28198874667561     0.42309592610968
                 230     0.00023279264796     0.00122553129916    -0.00167734235999     0.29438854215670     0.28359607630270     0.42201538154061
                 231     0.00008980544000     0.00065701353690    -0.00034455143362     0.29540092763807     0.28313694904252     0.42146212331941
                 232     0.00022993912944    -0.00019593479378    -0.00076743656301     0.29471763760487     0.28318490257020     0.42209745982493
                 233     0.00036113743184    -0.00085820253536     0.00139181651891     0.29555581151541     0.28205329647934     0.42239089200525
                 234     0.00025951949263     0.00326634629029     0.00024061578881     0.29474234365611     0.28191611747182     0.42334153887208
                 235     0.00085151397172    -0.00082081068861    -0.00077598700469     0.29890171446675     0.27717579866470     0.42392248686855
                 236     0.00088914199639    -0.00071081415071    -0.00086513020058     0.29884899865564     0.27767827787476     0.42347272346960
                 237     0.00041736287341    -0.00198484050869     0.00044013020811     0.29460932160279     0.28384464827654     0.42154603012067
                 238     0.00058137350693     0.00223772022183    -0.00042696790267     0.29701577866202     0.28227048677470     0.42071373456329
                 239    -0.00002676918066     0.00149922764633    -0.00091728958442     0.29475804509360     0.28345911233982     0.42178284256658
                 240    -0.00109390963016    -0.00066705824139     0.00063071556873     0.29366853921735     0.28374538957770     0.42258607120495
                 241     0.00009604099069    -0.00156850854860    -0.00063215918661     0.29869007118528     0.27742337610232     0.42388655271240
                 242    -0.00007389679368    -0.00047989318850    -0.00111105384564     0.29800274694188     0.27855363216076     0.42344362089736
                 243    -0.00041497514622    -0.00070315742959     0.00131896777755     0.29353007694629     0.28519927017285     0.42127065288087
                 244    -0.00041252810741     0.00197163928107    -0.00019887927221     0.29553028727210     0.28420741766861     0.42026229505929
                 245     0.00013483581215    -0.00147824708170    -0.00144041419833     0.29485637395883     0.28298035071310     0.42216327532808
                 246    -0.00028858309676     0.00122582657747    -0.00042288330328     0.29404359579299     0.28290301782801     0.42305338637900
                 247     0.00011156405424    -0.00034488468612    -0.00100853744212     0.29458563222806     0.28178682788965     0.42362753988230
                 248     0.00002837194632     0.00090108279117    -0.00072992870365     0.29212312287014     0.28443891991814     0.42343795721172
                 249     0.00017586342786     0.00014597046386    -0.00007264521853     0.29839592838342     0.27744419079372     0.42415988082285
                 250     0.00037414308410    -0.00434631043375    -0.00074316381577     0.29877201266945     0.27748194468997     0.42374604264059
                 251     0.00007441971048     0.00402953111664     0.00069734681329     0.29406652071954     0.28368567095166     0.42224780832880
                 252     0.00001618796529     0.00240844585952    -0.00188769583830     0.29588079875388     0.28291471020019     0.42120449104593
                 253     0.00001352820946    -0.00346261465614     0.00102568154281     0.29639732019225     0.28116693202050     0.42243574778726
                 254     0.00110185010349    -0.00130519136833     0.00080809893780     0.29673771666750     0.28060978363682     0.42265249969568
                 255     0.00003811173507     0.00219636618217    -0.00085310116389     0.29612802253731     0.28072575079319     0.42314622666950
                 256    -0.00003867906831    -0.00216211421865    -0.00110104796391     0.29770773685010     0.28009298407887     0.42219927907102
                 257     0.00069931282655     0.00037095193947     0.00088759564047     0.29358128756547     0.28502542461421     0.42139328782032
                 258    -0.00000916643616     0.00139502538296     0.00018747402712     0.29492361460920     0.28387391621407     0.42120246917673
                 259    -0.00028169586330    -0.00163378376967     0.00037771700252     0.29559059820891     0.28319289913621     0.42121650265488
                 260    -0.00003722953600     0.00199538022554    -0.00001445242993     0.29157763127658     0.28664135010156     0.42178101862186
                 261     0.00006639604224    -0.00180168357386    -0.00069240832043     0.29979146146142     0.27634249580326     0.42386604273532
                 262    -0.00033909005491    -0.00058045470109     0.00011310904916     0.29995355341521     0.27541845501159     0.42462799157320
                 263    -0.00078318498001     0.00079895974986    -0.00031217102452     0.29317020965014     0.28498111078214     0.42184867956772
                 264     0.00010718444653    -0.00144757130860     0.00120642646751     0.29260742845631     0.28603704655611     0.42135552498758
                 265    -0.00015819439941     0.00172746308144     0.00027895635096     0.29741289706074     0.27958223204966     0.42300487088960
                 266    -0.00056927856650    -0.00051588667996    -0.00066878323513     0.29532216989554     0.28082183977273     0.42385599033173
                 267     0.00022796679712     0.00237772132654    -0.00172206349104     0.29705621114447     0.27861023707277     0.42433355178276
                 268    -0.00036056264239     0.00022240484501    -0.00001331899281     0.29706075107688     0.27862936260942     0.42430988631370
                 269     0.00009562410969    -0.00036243281451     0.00031835890287     0.29589516910088     0.28044479270818     0.42366003819094
                 270     0.00004390166915    -0.00165896487821     0.00107425324268     0.29599426879897     0.28143239733809     0.42257333386293
                 271     0.00047170371691    -0.00083302814757    -0.00162531336235     0.29729818238915     0.27834546265494     0.42435635495592
                 272     0.00054233994193     0.00232849419627     0.00197203387276     0.29517463172830     0.27879785556005     0.42602751271165
                 273    -0.00017723490402    -0.00075423171988     0.00072064071432     0.29798271484882     0.27603344344940     0.42598384170178
                 274     0.00028074156581     0.00051088382398     0.00031919710470     0.29656055772813     0.27790258978054     0.42553685249133
                 275     0.00032818094052     0.00000169495033     0.00025136227489     0.29182560054031     0.28414921665829     0.42402518280141
                 276     0.00038275653207     0.00056302030734    -0.00030612228807     0.29470547886369     0.28180805618545     0.42348646495086
                 277     0.00056165628044    -0.00069255913558    -0.00011604188531     0.29898175167071     0.27668328377893     0.42433496455036
                 278     0.00041216765654    -0.00012402832395     0.00096836331245     0.29500714649439     0.27959711942349     0.42539573408212
                 279    -0.00001993777452    -0.00067984865831    -0.00015682667394     0.30113903459319     0.27293122483328     0.42592974057353
                 280    -0.00064179874100    -0.00103350611000    -0.00013688903755     0.30062893039541     0.27320237186331     0.42616869774128
                 281     0.00020195594292    -0.00110592106164     0.00002070341098     0.29430517409067     0.28105588573264     0.42463894017669
                 282    -0.00037170760063     0.00026236882042    -0.00071352169256     0.29926652097196     0.27714097685596     0.42359250217208
                 283    -0.00005308485905     0.00113071083163     0.00126094486411     0.29703312261890     0.27885053587145     0.42411634150965
                 284    -0.00016516440514    -0.00062300241144    -0.00054243968058     0.29423365272939     0.28101970267699     0.42474664459362
                 285     0.00000648802734    -0.00345316043285     0.00021548959226     0.29755008420784     0.27651923066539     0.42593068512677
                 286    -0.00019009039806     0.00155136383558    -0.00009962306585     0.30105580008890     0.27379840881019     0.42514579110092
                 287     0.00045813399697    -0.00064995055434    -0.00098971721988     0.29521264482511     0.28197547174363     0.42281188343126
                 288    -0.00034451158261    -0.00039085320470    -0.00039559636486     0.29667311135334     0.28113003826611     0.42219685038055
                 289    -0.00004813604235     0.00179973961993     0.00066043258355     0.29683170439057     0.27933639534342     0.42383190026601
                 290     0.00017395741399     0.00006403034028    -0.00176134772689     0.29449267388096     0.28016125758962     0.42534606852943
                 291     0.00043009995236    -0.00181816951559    -0.00083616324557     0.29835825560433     0.27650275265794     0.42513899173773
                 292    -0.00021961142954     0.00089956837045     0.00043561943566     0.29595758443573     0.27777030246227     0.42627211310200
                 293     0.00024908647721     0.00006467807919    -0.00000767274213     0.29742348937204     0.27717223401117     0.42540427661679
                 294    -0.00015263935772    -0.00405590673337    -0.00008760359800     0.29738191600464     0.27659891429534     0.42601916970002
                 295    -0.00035357860256     0.00166968195440    -0.00045697742369     0.29701474275694     0.27739366845008     0.42559158879298
                 296    -0.00063197412992     0.00231314107353    -0.00005058224957     0.29539535921637     0.27836248819722     0.42624215258640
                 297    -0.00104261905018     0.00078733139694    -0.00082010789494     0.30209710632008     0.27151413866744     0.42638875501249
                 298    -0.00001084558676    -0.00040078225970    -0.00053862701765     0.28950788048761     0.28113420867553     0.42935791083686
                 299     0.00051262504180     0.00115666358893    -0.00032628110769     0.32960668128064     0.24655545681795     0.42383786190140
                 300    -0.00097018110957    -0.00164759867226     0.00100563461099     0.22562981977847     0.31913325794242     0.45523692227910
 l=         500
                   1     0.00074381565599     0.00165735473606    -0.00063494504294     0.19668106297124     0.35754033131145     0.44577860571731
                   2    -0.00017198298248    -0.00290754815555    -0.00006967149668     0.32622604993530     0.27021988467629     0.40355406538841
                   3     0.00079672535143     0.00118485208099    -0.00089090694267     0.28953068809224     0.29999196904113     0.41047734286663
                   4     0.00040728789918    -0.00097046288151     0.00050572499386     0.29910084031908     0.29197826003273     0.40892089964819
                   5    -0.00051570854477     0.00009828258678    -0.00059949869692     0.29664945753207     0.29327027099072     0.41008027147721
                   6     0.00000477288332     0.00160205987437     0.00035682798911     0.29902054713838     0.29115707322726     0.40982237963436
                   7    -0.00002418427627    -0.00140520619828     0.00108463412507     0.29583941779036     0.29521895862527     0.40894162358437
                   8    -0.00029187766017    -0.00054292951223    -0.00058727121713     0.29592049056440     0.29520370074095     0.40887580869465
                   9    -0.00026746350725     0.00189373531031    -0.00002426988125     0.29964730648373     0.29126187969493     0.40909081382134
                  10     0.00027092115920    -0.00230089255494     0.00017804139573     0.29795140885361     0.29208717501625     0.40996141613014
                  11     0.00081328512819     0.00220156338438    -0.00061048538506     0.29665001781611     0.29339414036057     0.40995584182332
                  12     0.00065781652273     0.00052395169850     0.00103996277127     0.29729013545380     0.29299150694111     0.40971835760509
                  13    -0.00070277254484     0.00258898289477     0.00108464709558     0.29891830886300     0.29244758044997     0.40863411068703
                  14     0.00039228039066    -0.00281434046985     0.00001594064601     0.29754272821651     0.29352892475567     0.40892834702782
                  15     0.00007380103855    -0.00280132551575     0.00003225891028     0.29670513980308     0.29273147481069     0.41056338538623
                  16     0.00039072390581    -0.00108025262987    -0.00021365341951     0.29729830258636     0.29155786784836     0.41114382956528
                  17    -0.00030308382102     0.00236771142732    -0.00047450836965     0.29781679648466     0.29102301429587     0.41116018921947
                  18    -0.00027174893284     0.00058063382317    -0.00167522388606     0.29775154585439     0.29093619134463     0.41131226280098
                  19     0.00046654475008     0.00110129214977     0.00060035365972     0.29549507561753     0.29544500943705     0.40905991494542
                  20    -0.00025509593807    -0.00065455772365    -0.00122241650409     0.29795850741633     0.29406097812671     0.40798051445696
                  21    -0.00034253470750     0.00044563129840     0.00066174896268     0.29766112521943     0.29288795034408     0.40945092443649
                  22     0.00007981713569    -0.00190131128092    -0.00000313060168     0.29540743892425     0.29329830362122     0.41129425745453
                  23    -0.00052743470269     0.00066340820708    -0.00040130534283     0.29734220472901     0.29129835091690     0.41135944435409
                  24    -0.00078036502704    -0.00114384733789     0.00160682827723     0.29750433635365     0.29155981272720     0.41093585091915
                  25    -0.00000634182844     0.00183047380700    -0.00121465814093     0.29605972451688     0.29452935567670     0.40941091980641
                  26    -0.00000848263919     0.00070095100294     0.00069813039467     0.29620096600723     0.29320100932374     0.41059802466903
                  27     0.00095075772886     0.00134749424143    -0.00052790895446     0.29591030912113     0.29237724137380     0.41171244950507
                  28    -0.00012900608379    -0.00047635176351     0.00104619633373     0.29475666635309     0.29229823803670     0.41294509561020
                  29     0.00039913557553    -0.00128039051591    -0.00087552572561     0.29718972789525     0.29091911925934     0.41189115284540
                  30    -0.00024093512860     0.00302371282947    -0.00192487087486     0.29809708994750     0.29135725169251     0.41054565835999
                  31    -0.00003615719317    -0.00041366158047     0.00040675054132     0.29704700404680     0.29355738858721     0.40939560736600
                  32    -0.00065269484072    -0.00096079797738     0.00315470226976     0.29809019459865     0.29398720507070     0.40792260033066
                  33     0.00008569228781    -0.00088923060717     0.00108618040558     0.29755740795753     0.29264355766764     0.40979903437482
                  34     0.00012967807903     0.00130203961725    -0.00047834931903     0.29626236998814     0.29249390565716     0.41124372435471
                  35     0.00026248679803     0.00203626609591    -0.00034039072857     0.29676187315955     0.29210893242880     0.41112919441166
                  36    -0.00026267556378    -0.00044382631703     0.00012082493221     0.29712449034482     0.29219903409807     0.41067647555710
                  37     0.00035534508191     0.00113532627539     0.00028019360625     0.29753488371798     0.29305094041052     0.40941417587150
                  38     0.00006503054948    -0.00095833734853     0.00006977779348     0.29702973274231     0.29383193991251     0.40913832734518
                  39     0.00023048532875     0.00012348737904    -0.00106818088333     0.29672221873476     0.29304090693358     0.41023687433166
                  40     0.00049356123151    -0.00242872220278    -0.00136566022733     0.29806355942480     0.29188075200717     0.41005568856802
                  41     0.00042029163151     0.00046450285809     0.00055539402064     0.29705680595515     0.29253420254110     0.41040899150375
                  42    -0.00033318787233    -0.00041571377637     0.00052863391356     0.29738222893951     0.29271013416851     0.40990763689198
                  43    -0.00021544215581     0.00324401511226    -0.00241364118629     0.29800258919991     0.29173055183267     0.41026685896741
                  44     0.00011696026825     0.00251844601763    -0.00110894756250     0.29750053268134     0.29318236461592     0.40931710270275
                  45     0.00001079769981    -0.00149224143539    -0.00136160485069     0.29738445381747     0.29313115968944     0.40948438649309
                  46    -0.00028274825212    -0.00005220218857     0.00107413846420     0.29786142871478     0.29208887266727     0.41004969861795
                  47    -0.00102036542123     0.00080219785874     0.00026224373250     0.29762576128188     0.29154829851257     0.41082594020554
                  48    -0.00063324918994    -0.00139161825085    -0.00029268468312     0.29553676230760     0.29384766765022     0.41061557004217
                  49    -0.00037973232154    -0.00048005509470     0.00030922137234     0.29547766885564     0.29433196695117     0.41019036419319
                  50     0.00076895757052     0.00114237401283    -0.00004080078591     0.29626949656029     0.29408506471885     0.40964543872085
                  51    -0.00023238130237    -0.00326977888386    -0.00186993726022     0.29574580374548     0.29452074524900     0.40973345100552
                  52     0.00006229423035     0.00121644336660     0.00031655269057     0.29624273073593     0.29365992751465     0.41009734174942
                  53     0.00048906460846     0.00150012279985     0.00090469719803     0.29676588665976     0.29293720254591     0.41029691079433
                  54     0.00007337187356    -0.00113584894445     0.00061132707095     0.29681820579152     0.29187777813408     0.41130401607440
                  55     0.00029108914779    -0.00027900619028    -0.00022597531746     0.29646022842073     0.29301308994901     0.41052668163026
                  56     0.00040084171976    -0.00025841052956    -0.00075212833127     0.29640720206378     0.29325868102939     0.41033411690683
                  57    -0.00067325384545     0.00004939554122    -0.00050992377562     0.29690134106799     0.29470029068846     0.40839836824356
                  58     0.00077437845139     0.00175438413071     0.00015534823661     0.29826957515639     0.29457525162823     0.40715517321538
                  59    -0.00059813968121    -0.00220023425272    -0.00115129827258     0.29758012712810     0.29288854446520     0.40953132840670
                  60     0.00026352401598    -0.00076919068076    -0.00066212141686     0.29688119288950     0.29306603219768     0.41005277491282
                  61    -0.00023950952590     0.00118234820269    -0.00057699781094     0.29715203133178     0.29292553423152     0.40992243443671
                  62     0.00093752984274     0.00098487856195    -0.00203147730214     0.29691266729324     0.29285320886019     0.41023412384656
                  63     0.00019621760785    -0.00020329739037    -0.00064909898940     0.29680595814555     0.29348640418707     0.40970763766738
                  64    -0.00035014149216    -0.00006893043025     0.00014361734442     0.29535140516309     0.29498401906492     0.40966457577199
                  65    -0.00041957206413     0.00000238745353    -0.00204902887607     0.29606643124101     0.29442968752079     0.40950388123820
                  66    -0.00160344199903     0.00067462669603     0.00126400377698     0.29594022842430     0.29337323472586     0.41068653684984
                  67     0.00036774832000     0.00066452871427     0.00006869774929     0.29498112026743     0.29283449377649     0.41218438595608
                  68     0.00032662342305    -0.00082857180302     0.00152062553789     0.29580804466791     0.29247993948924     0.41171201584285
                  69     0.00059872953503     0.00177505747793    -0.00179278827819     0.29742775343393     0.29387913444805     0.40869311211802
                  70    -0.00045235544479    -0.00102116928378     0.00012584638731     0.29828586825243     0.29324550244389     0.40846862930368
                  71    -0.00032188831627     0.00257026935473     0.00049883008417     0.29735967867066     0.29150286734968     0.41113745397966
                  72    -0.00158123662276    -0.00174417846232     0.00036149632318     0.29597719688352     0.29173456377767     0.41228823933881
                  73    -0.00129255785519     0.00082843873234     0.00062200831003     0.29708383445701     0.29180290144671     0.41111326409628
                  74     0.00003412563928     0.00312376460912     0.00002121489867     0.29849756624151     0.29121783855963     0.41028459519886
                  75    -0.00086413552899    -0.00399450010107     0.00055545394042     0.29758494502155     0.29367982154548     0.40873523343298
                  76     0.00043747705758     0.00197484049761    -0.00008658466666     0.29663249996571     0.29490920357538     0.40845829645891
                  77    -0.00010541295846     0.00117476074283    -0.00065510525486     0.29746407783692     0.29263017294969     0.40990574921339
                  78    -0.00127255209697    -0.00129218051933    -0.00007909815532     0.29791903092891     0.29224444482536     0.40983652424574
                  79     0.00008122994324    -0.00333874674256    -0.00062672064545     0.29722900717575     0.29257408335583     0.41019690946842
                  80     0.00006015924533    -0.00039483087683     0.00040447821687     0.29863474367671     0.29199828380204     0.40936697252124
                  81     0.00052646676629     0.00386635099180    -0.00150907857182     0.29642569224303     0.29422781397206     0.40934649378491
                  82    -0.00103005498591     0.00002761822309    -0.00062695100470     0.29587461745836     0.29508387249217     0.40904151004947
                  83    -0.00034865663560     0.00089788374560    -0.00166911247573     0.29874384299895     0.29048602843861     0.41077012856244
                  84    -0.00018144508516    -0.00433674233522     0.00109193216331     0.29658841069079     0.29277935299573     0.41063223631348
                  85    -0.00006152843409     0.00071974022420    -0.00050874488645     0.29762212782713     0.29190129956526     0.41047657260761
                  86     0.00006316258673     0.00081476618483     0.00007966850940     0.29657034047634     0.29296688463514     0.41046277488852
                  87     0.00060829561932     0.00061355376171     0.00113936871749     0.29720540002286     0.29218247119486     0.41061212878227
                  88     0.00090574169300     0.00114653317598     0.00039806684259     0.29671567541607     0.29268090109067     0.41060342349326
                  89    -0.00000605316856    -0.00088387018720    -0.00068840180511     0.29658763531882     0.29171222554819     0.41170013913299
                  90     0.00055012864075     0.00217665600135    -0.00048276669486     0.29822686356426     0.29011820048306     0.41165493595269
                  91    -0.00021305668222    -0.00387481536522     0.00045091861408     0.29581415768838     0.29304888520429     0.41113695710732
                  92     0.00012721724191    -0.00078164457084    -0.00064369122707     0.29612007804939     0.29298033622930     0.41089958572131
                  93     0.00026872934351     0.00144186383452     0.00072937932084     0.29656431427474     0.29314341744331     0.41029226828195
                  94    -0.00010891019118     0.00275554192323    -0.00102353310507     0.29611955446065     0.29384245093496     0.41003799460439
                  95    -0.00061427927691     0.00027799837131    -0.00173155154771     0.29572320324668     0.29419825377330     0.41007854298002
                  96     0.00086131129165     0.00060987929332     0.00066754077425     0.29673360465980     0.29335409244844     0.40991230289176
                  97    -0.00035532866539    -0.00087554929418    -0.00071504540057     0.29728068677300     0.29224271938154     0.41047659384546
                  98    -0.00032976810234    -0.00044370466598    -0.00043406568690     0.29763427857438     0.29154285730336     0.41082286412226
                  99     0.00056297269103    -0.00262128294758    -0.00033280250187     0.29875417116071     0.29072375921176     0.41052206962754
                 100     0.00036820738315     0.00104648486461    -0.00084993142476     0.29772539462405     0.29276618391439     0.40950842146155
                 101    -0.00018663394438     0.00151332099559    -0.00071757245903     0.29558060347456     0.29491119745259     0.40950819907285
                 102     0.00001313381223     0.00012118323554     0.00127142917380     0.29686074614610     0.29256499915433     0.41057425469957
                 103     0.00033082663814     0.00000288900620     0.00051791599413     0.29721007472264     0.29157992975885     0.41120999551851
                 104     0.00015658676905     0.00084568402849    -0.00063139835764     0.29756575371343     0.29113939657785     0.41129484970873
                 105    -0.00058009769568     0.00222421451827     0.00006299060703     0.29732724898066     0.29189907109445     0.41077367992489
                 106    -0.00090978480609    -0.00271686572952    -0.00001129397546     0.29449456664293     0.29541658041955     0.41008885293752
                 107     0.00044147368393     0.00022954771268    -0.00108692309613     0.29806774263440     0.29115642118792     0.41077583617767
                 108     0.00014857980406    -0.00098682963202    -0.00098882151027     0.29610369512160     0.29300829135452     0.41088801352388
                 109     0.00002108465214     0.00152458744150    -0.00019743204998     0.29547535874018     0.29325366771473     0.41127097354509
                 110    -0.00062578120546    -0.00116650246603    -0.00028473434688     0.29803868511854     0.28977568702662     0.41218562785484
                 111    -0.00070916145987     0.00084518396933     0.00103001991961     0.29605391116534     0.29254603395143     0.41140005488323
                 112    -0.00022164557888    -0.00108601614831     0.00004473911687     0.29726988566368     0.29222331330580     0.41050680103052
                 113     0.00044955260694    -0.00004479202037     0.00004974411983     0.29691465390634     0.29325337042378     0.40983197566989
                 114    -0.00049775013679     0.00256579689006     0.00133155856705     0.29533303760958     0.29459434418633     0.41007261820408
                 115     0.00055341246389    -0.00034308809973     0.00108893061923     0.29592779121033     0.29206326184068     0.41200894694898
                 116    -0.00018291818602    -0.00263902421704     0.00091695462281     0.29498550030319     0.29406409898641     0.41095040071040
                 117    -0.00015356463606    -0.00099565832060     0.00037189586321     0.29482862513072     0.29459519236093     0.41057618250835
                 118     0.00063364979008     0.00351649267753     0.00027773817838     0.29795466463665     0.29202570866428     0.41001962669907
                 119     0.00046626712883    -0.00047245646918     0.00071836290921     0.29593961147858     0.29396444335028     0.41009594517113
                 120    -0.00019317594907    -0.00374286754784    -0.00060328698730     0.29564884367028     0.29410598675701     0.41024516957271
                 121    -0.00000302856469     0.00149074737962     0.00003328388526     0.29664880528761     0.29308461304818     0.41026658166421
                 122     0.00040051874395     0.00039935727035     0.00175805091068     0.29654378997862     0.29314350275000     0.41031270727138
                 123    -0.00106591552918    -0.00068588592367     0.00037936656328     0.29646341615108     0.29303669548344     0.41049988836548
                 124    -0.00099988401215    -0.00034407453513    -0.00066358467189     0.29610349938533     0.29331488383684     0.41058161677783
                 125     0.00001371036138     0.00049921128694    -0.00036137329983     0.29648145687647     0.29523829137432     0.40828025174921
                 126     0.00059900531735     0.00173879565299     0.00012392080982     0.29789589659106     0.29390111872077     0.40820298468817
                 127     0.00006556751979    -0.00041746026608     0.00023647697078     0.29777453301397     0.29393173180159     0.40829373518444
                 128    -0.00056725674371     0.00203575598186    -0.00211606010665     0.29679613663000     0.29374726033579     0.40945660303421
                 129    -0.00061383854297    -0.00133506823169     0.00048290135578     0.29652568019476     0.29244226500994     0.41103205479530
                 130     0.00022165723566     0.00009220001685    -0.00015784085358     0.29759676995129     0.29144783228288     0.41095539776583
                 131     0.00013580042449    -0.00016337659664    -0.00086567350994     0.29672603199657     0.29391848584382     0.40935548215961
                 132     0.00027187406208    -0.00031452907553     0.00183475618215     0.29549879923427     0.29553830477700     0.40896289598873
                 133    -0.00101280785982    -0.00057031431683    -0.00017887912439     0.29693842643490     0.29277670218580     0.41028487137929
                 134    -0.00010643146078     0.00156952453442    -0.00037389671443     0.29459338842933     0.29484831209281     0.41055829947786
                 135     0.00016132409841    -0.00125581458308    -0.00050774752870     0.29550855390357     0.29288450003852     0.41160694605791
                 136    -0.00078601478924     0.00087574682486    -0.00025739286085     0.29587567380843     0.29208080568093     0.41204352051064
                 137    -0.00033296967280    -0.00065317460875     0.00002571712508     0.29654650291601     0.29244170421001     0.41101179287398
                 138    -0.00018071735486     0.00079650706073     0.00121769941290     0.29737557080333     0.29123143358639     0.41139299561029
                 139    -0.00015495144729    -0.00065938811910    -0.00113198659245     0.29478806923842     0.29315997414919     0.41205195661239
                 140     0.00075376393939     0.00045574801700    -0.00014832472677     0.29510517023876     0.29241946594435     0.41247536381689
                 141    -0.00037568399980    -0.00028833151750    -0.00001882200036     0.29782272891705     0.28992892029907     0.41224835078388
                 142    -0.00030165894884     0.00002125705516     0.00004917192399     0.29656888246085     0.29101117144506     0.41241994609409
                 143    -0.00026282416696     0.00063867503404    -0.00157512519195     0.29634565121559     0.29304535964223     0.41060898914219
                 144    -0.00141327592820    -0.00037226331003     0.00045934376558     0.29734572502837     0.29215517863632     0.41049909633531
                 145    -0.00033439797697    -0.00078165881998     0.00094233516827     0.29545496649455     0.29511702539454     0.40942800811091
                 146    -0.00005478162138     0.00229623211314     0.00057710964424     0.29648565870413     0.29380455143953     0.40970978985634
                 147     0.00007129647529    -0.00209724386867     0.00006825811279     0.29491463374286     0.29496544389947     0.41011992235767
                 148    -0.00049502331775    -0.00058789090721    -0.00181178955379     0.29345889612406     0.29497573550185     0.41156536837409
                 149    -0.00022711704563     0.00234360398167     0.00056656079658     0.29723329398467     0.29107564438829     0.41169106162704
                 150    -0.00052812911668     0.00129334199131    -0.00104915614698     0.29885001644384     0.28955472309505     0.41159526046111
                 151    -0.00028930636829    -0.00494464167562     0.00036080510044     0.29601298800021     0.29288112454285     0.41110588745694
                 152     0.00020272730308     0.00040393510517    -0.00017417419586     0.29539068504763     0.29306837617981     0.41154093877256
                 153     0.00021180980534     0.00093322111813    -0.00027079040471     0.29608680397158     0.29251208179191     0.41140111423650
                 154    -0.00057429043757     0.00132456943618     0.00056257203218     0.29482954231240     0.29287324275149     0.41229721493611
                 155     0.00001113837322    -0.00095873642147    -0.00093481578565     0.29685633962713     0.29163288252240     0.41151077785046
                 156     0.00019895191267     0.00189097203550     0.00036255408693     0.29691276901503     0.29078311489534     0.41230411608963
                 157     0.00021920834507    -0.00162188136740     0.00043583775549     0.29615573300021     0.29269950848458     0.41114475851521
                 158     0.00021875878343    -0.00134147769708     0.00107955333816     0.29593080728590     0.29248184384892     0.41158734886518
                 159    -0.00042721252132     0.00124775443624    -0.00051278599790     0.29632171832156     0.29205407817238     0.41162420350606
                 160     0.00047706316339    -0.00086184626440     0.00049790396136     0.29559486272272     0.29263033191710     0.41177480536018
                 161     0.00071361056313     0.00025058304197    -0.00054825282307     0.29589360640303     0.29113829162717     0.41296810196980
                 162    -0.00033526454184     0.00283421734587    -0.00135574302479     0.29663410122784     0.29022081027212     0.41314508850004
                 163     0.00003029755935    -0.00197538446135     0.00061433336101     0.29725475498382     0.29040890355615     0.41233634146003
                 164     0.00036247859119    -0.00191526366625    -0.00078315919155     0.29659979883034     0.29114256716413     0.41225763400553
                 165     0.00030371977954    -0.00060800049902     0.00067744520591     0.29602812466477     0.29178685778325     0.41218501755198
                 166    -0.00072925772034    -0.00128397962310    -0.00195538094351     0.29639436605857     0.29182732880195     0.41177830513949
                 167     0.00005895351437     0.00142559533788     0.00075782967574     0.29754099499898     0.28989215724319     0.41256684775783
                 168     0.00019660190742     0.00299645183869    -0.00015035421755     0.29631339675896     0.29047525759552     0.41321134564552
                 169     0.00073651770000     0.00060778928283     0.00053132124187     0.29548091078842     0.29249970761116     0.41201938160041
                 170     0.00036086311157    -0.00297651045695    -0.00043696290802     0.29637481378413     0.29140056267005     0.41222462354582
                 171     0.00037908321614     0.00020951093758    -0.00051689698833     0.29637071863371     0.29058855102376     0.41304073034254
                 172     0.00063005996127     0.00176211049917    -0.00052142354808     0.29579644000597     0.29046966811310     0.41373389188093
                 173    -0.00042067701776    -0.00190174169482    -0.00006200255044     0.29675178031562     0.29003625294696     0.41321196673742
                 174     0.00020227343190     0.00231395806117     0.00243636865779     0.29707519675703     0.29017834190187     0.41274646134110
                 175    -0.00016938575011    -0.00142413728630    -0.00118748310952     0.29437846688348     0.29341530100619     0.41220623211033
                 176    -0.00052064321285     0.00176065224547     0.00014084581517     0.29552866397046     0.29103555203742     0.41343578399212
                 177    -0.00028939571486    -0.00161417924214    -0.00026439395666     0.29578586040915     0.29090883954868     0.41330530004217
                 178    -0.00021402600894     0.00254244663851     0.00081847309802     0.29365377451043     0.29203212370172     0.41431410178785
                 179    -0.00004514308380    -0.00196625176362     0.00029753142365     0.29504091686924     0.29111458275963     0.41384450037113
                 180     0.00027830838005    -0.00303503315352    -0.00054973945134     0.29632831430339     0.29200712233410     0.41166456336251
                 181     0.00038833822736    -0.00152503100227     0.00094307892107     0.29657337445160     0.29257456943682     0.41085205611158
                 182    -0.00093706894350     0.00207628515936     0.00096766534100     0.29848370314021     0.29003942575963     0.41147687110015
                 183     0.00023166394450     0.00138017553831     0.00065592202164     0.29662518270674     0.29104046650273     0.41233435079053
                 184     0.00033308937029    -0.00120114426114    -0.00085703518464     0.29348997220875     0.29270925033414     0.41380077745712
                 185    -0.00068183490008    -0.00023136955311    -0.00030202009027     0.29631029490210     0.28942371000794     0.41426599508996
                 186     0.00065943799284     0.00126432560357    -0.00092301264564     0.29601146250267     0.29000627581935     0.41398226167799
                 187    -0.00027459959456    -0.00070180404007    -0.00060412069804     0.29659203272215     0.29100434013283     0.41240362714502
                 188     0.00035533460695     0.00120868749860    -0.00044636649820     0.29603125736643     0.29135516033012     0.41261358230346
                 189    -0.00078254298550     0.00017216282986     0.00065703253795     0.29561591064601     0.29099781510055     0.41338627425344
                 190     0.00012581725352    -0.00166002339570    -0.00033459820466     0.29636132968323     0.29018071191775     0.41345795839901
                 191     0.00033028960371     0.00143621986161    -0.00161275063039     0.29549877129811     0.29043416779940     0.41406706090249
                 192    -0.00006574327063    -0.00328466362202    -0.00079030940136     0.29657539396648     0.28968855890687     0.41373604712665
                 193    -0.00042683857443     0.00058728655072    -0.00007533338187     0.29414500333250     0.29276445172150     0.41309054494600
                 194    -0.00001898375443     0.00177479576056     0.00042532913243     0.29552169146976     0.29169543135810     0.41278287717214
                 195    -0.00032613460644    -0.00010763670844     0.00117491592897     0.29574761510676     0.29063496432572     0.41361742056752
                 196     0.00008275940681     0.00103674229681    -0.00008768204443     0.29559166526812     0.29157779139912     0.41283054333276
                 197     0.00021780131666    -0.00120917283405    -0.00125119781999     0.29777113794186     0.28981807941778     0.41241078264036
                 198     0.00031191661824    -0.00286291581119     0.00081936562995     0.29493052612994     0.29191991871258     0.41314955515748
                 199     0.00004605932269     0.00397096032383    -0.00092444174518     0.29551441308933     0.29154089084417     0.41294469606649
                 200     0.00007103498465    -0.00104825725784     0.00006277195154     0.29769172568772     0.29048315476111     0.41182511955117
                 201     0.00005504926397    -0.00107279761543     0.00115107820267     0.29588316622558     0.29222759980462     0.41188923396980
                 202     0.00057778660348    -0.00330460968890    -0.00014359117415     0.29471269254312     0.29293893268464     0.41234837477225
                 203     0.00033853300461     0.00197579107403     0.00060655557172     0.29884262444872     0.28782265117744     0.41333472437384
                 204    -0.00072366841443     0.00126155270178    -0.00182970652151     0.29795566741842     0.28817660404686     0.41386772853473
                 205    -0.00000109883881     0.00010825058384     0.00073817032308     0.29683252332169     0.28894774249639     0.41421973418192
                 206    -0.00038341690529    -0.00018010332751    -0.00177679375563     0.29722557786198     0.28768097830287     0.41509344383515
                 207    -0.00005208922413    -0.00051265808979     0.00110674654822     0.29455874587219     0.29201123633381     0.41343001779401
                 208    -0.00027237171830    -0.00221815425935    -0.00004171578986     0.29440663786449     0.29178504450319     0.41380831763233
                 209    -0.00090305474952     0.00200885084028    -0.00052496239537     0.29581278905844     0.29053593820198     0.41365127273958
                 210     0.00024035930696     0.00024319948518     0.00067803555630     0.29627808769126     0.29041025538793     0.41331165692082
                 211    -0.00037634665450     0.00081892178997     0.00060418878741     0.29764501118969     0.28943616854331     0.41291882026700
                 212     0.00047136312170    -0.00136308219433    -0.00014002273926     0.29684094081160     0.29000534078972     0.41315371839868
                 213     0.00027822711165     0.00288064643444    -0.00029930121858     0.29631069924695     0.29063016018872     0.41305914056433
                 214    -0.00009795739166     0.00092199054307     0.00090947162473     0.29562428031823     0.29026659530536     0.41410912437641
                 215     0.00033838804633    -0.00491484449016    -0.00052224620911     0.29705197111047     0.28884887132758     0.41409915756196
                 216    -0.00002262929186     0.00233629444332     0.00003411388968     0.29597502377909     0.29012879061180     0.41389618560911
                 217     0.00003786998334     0.00391103282325     0.00071739207566     0.29355673227770     0.29087060210002     0.41557266562228
                 218     0.00061692870362     0.00045509736590     0.00063050994896     0.29545537275807     0.29032317658455     0.41422145065738
                 219    -0.00013566683730     0.00018039058122    -0.00061070553884     0.29534274199871     0.29135959320072     0.41329766480057
                 220     0.00002407542164    -0.00223230697196     0.00193778824446     0.29524362285774     0.29235025170334     0.41240612543892
                 221     0.00039097539833     0.00199383380383    -0.00147753309445     0.29612139605622     0.28993848094594     0.41394012299784
                 222     0.00054507688656    -0.00144525518289     0.00177537688771     0.29507353047361     0.29004959127409     0.41487687825230
                 223    -0.00024415619341    -0.00158748596465    -0.00222810328569     0.29495725942501     0.28968109541945     0.41536164515554
                 224     0.00104028132227     0.00001807255122     0.00045693766550     0.29358564984711     0.29074891261557     0.41566543753733
                 225    -0.00016562906819     0.00383743521992    -0.00059335599179     0.29283681218346     0.29316772088802     0.41399546692852
                 226     0.00075310166848     0.00017965601627     0.00142972647364     0.29398561331903     0.29224996224987     0.41376442443110
                 227    -0.00040036893102    -0.00034261329206    -0.00205171891433     0.29478356068599     0.29059282871111     0.41462361060289
                 228    -0.00045517786115     0.00110697886871     0.00126097916621     0.29465554181032     0.28961588771034     0.41572857047934
                 229     0.00030474835375    -0.00198470282645    -0.00120489879857     0.29418542617328     0.28998465523659     0.41582991859013
                 230     0.00051250943038    -0.00008606945440     0.00062645337568     0.29564764243634     0.28896654617216     0.41538581139150
                 231     0.00013414603133     0.00241972762308    -0.00109025129986     0.29636291407470     0.28972630492284     0.41391078100246
                 232    -0.00052952308015    -0.00026292283557     0.00006078338713     0.29391746732797     0.29179199724558     0.41429053542645
                 233     0.00015218933334    -0.00144151760604     0.00081754582078     0.29506635732160     0.29023365503525     0.41469998764315
                 234    -0.00020322918210     0.00255978751696    -0.00035150096264     0.29428956109014     0.29017897561505     0.41553146329481
                 235     0.00001280893296    -0.00206906065148    -0.00138137559791     0.29565822216238     0.28824542659606     0.41609635124156
                 236     0.00018761422039    -0.00081982295338    -0.00155866162567     0.29604944468375     0.28889010372862     0.41506045158763
                 237     0.00001794501820    -0.00095768253787     0.00116473938988     0.29420083823767     0.29056809488655     0.41523106687578
                 238     0.00135810786118     0.00206017266682    -0.00001154615087     0.29711511455325     0.28877540679673     0.41410947865002
                 239    -0.00000578314047     0.00040578588879    -0.00109902512544     0.29635347694129     0.28947183204110     0.41417469101760
                 240    -0.00027227569286    -0.00113689522133    -0.00155999550109     0.29442017504462     0.29037370079286     0.41520612416251
                 241    -0.00030105160123     0.00009199359803     0.00080399966489     0.29612421838312     0.28750668351055     0.41636909810633
                 242    -0.00041450729970    -0.00131119907731    -0.00072138466535     0.29683246930379     0.28773541601858     0.41543211467763
                 243    -0.00028101753055    -0.00052641005423     0.00047844816795     0.29554191446381     0.29107090828943     0.41338717724676
                 244    -0.00117059735736     0.00101147833071     0.00044678994251     0.29549424856414     0.29076449506234     0.41374125637352
                 245    -0.00051049648626    -0.00015631875306    -0.00226820328985     0.29598643828148     0.28964653889978     0.41436702281874
                 246    -0.00032364886030     0.00028373885761     0.00053440972907     0.29595395683514     0.28928038099423     0.41476566217063
                 247     0.00002980593843    -0.00021114504593    -0.00007949945676     0.29401321297398     0.29033372457555     0.41565306245047
                 248     0.00015156967461     0.00271828904283    -0.00017883919687     0.29273641181580     0.29170213559313     0.41556145259108
                 249     0.00030295299616    -0.00123786791880    -0.00272100194925     0.29674976123583     0.28648227859947     0.41676796016469
                 250    -0.00003048333488    -0.00300000953471    -0.00064649313544     0.29729472226236     0.28648307697879     0.41622220075884
                 251    -0.00050706782415     0.00401254302534     0.00069607138761     0.29561900567735     0.28991023819023     0.41447075613242
                 252     0.00015921230167     0.00135871654521    -0.00001728737071     0.29536604064195     0.29012864677481     0.41450531258324
                 253    -0.00021421341956    -0.00271581673727     0.00030782588376     0.29573056003912     0.28875281555590     0.41551662440497
                 254     0.00017543484134    -0.00073850429257     0.00026464976328     0.29691729225712     0.28807478207295     0.41500792566993
                 255    -0.00032597263793     0.00229470556753    -0.00047773242095     0.29529258308629     0.28962952027354     0.41507789664017
                 256     0.00059573091397    -0.00087920552223     0.00036334473375     0.29678303462362     0.28870758021147     0.41450938516491
                 257     0.00077928629177     0.00058524073676     0.00002362131886     0.29444430096595     0.29174577263562     0.41380992639843
                 258    -0.00014452694700     0.00129909379347    -0.00022987708523     0.29528342861722     0.29129635716908     0.41342021421370
                 259    -0.00075163690042    -0.00098280341945     0.00313661724824     0.29776616465111     0.28912723040315     0.41310660494574
                 260    -0.00044007989740     0.00118223222049    -0.00066530799863     0.29335574627861     0.29233691778662     0.41430733593477
                 261     0.00055895030389    -0.00101541424535    -0.00123180009939     0.29791664625023     0.28519791426782     0.41688543948196
                 262    -0.00100781261942    -0.00182875882210     0.00129498991065     0.29762309609289     0.28556850070671     0.41680840320040
                 263     0.00027861080886     0.00017247093714    -0.00057719127292     0.29263773286303     0.29238352168878     0.41497874544819
                 264     0.00068452296588    -0.00039052284400     0.00088681258944     0.29303916767636     0.29230610512722     0.41465472719641
                 265    -0.00055342996154     0.00046453783623     0.00013377025412     0.29531019066853     0.28931992828645     0.41536988104502
                 266     0.00042065844907    -0.00054057803364    -0.00034280723920     0.29514697492850     0.28910243161564     0.41575059345586
                 267     0.00007189599713     0.00149395167087    -0.00065614788372     0.29653668313783     0.28733966180320     0.41612365505897
                 268     0.00052326619934     0.00097650372451    -0.00068344535851     0.29659799502147     0.28747634682831     0.41592565815023
                 269     0.00036740187810    -0.00058202372404     0.00031698393834     0.29700471766225     0.28808438612260     0.41491089621515
                 270    -0.00036014372316     0.00009325062067     0.00143313636048     0.29653082113042     0.28868372285763     0.41478545601194
                 271    -0.00005261430980    -0.00349446692150    -0.00061760878463     0.29654025448783     0.28730339164098     0.41615635387119
                 272     0.00033546582415     0.00440595978824     0.00183968949225     0.29554732779067     0.28752592591278     0.41692674629655
                 273     0.00062069022823    -0.00059586491728    -0.00047850318354     0.29499444750610     0.28712011484855     0.41788543764535
                 274     0.00089403382718    -0.00204954353053    -0.00021116522418     0.29639696921198     0.28654821256346     0.41705481822456
                 275    -0.00055996009179    -0.00073413296069     0.00115547933044     0.29314229935850     0.29197625273470     0.41488144790680
                 276    -0.00032114202931     0.00070988398638     0.00016605291269     0.29266134730685     0.29185166301415     0.41548698967900
                 277     0.00020571538522    -0.00106078449555    -0.00043727897440     0.29628016461766     0.28754184268810     0.41617799269424
                 278     0.00004927146051     0.00085073159272     0.00100840996767     0.29395139505606     0.28932414610793     0.41672445883601
                 279     0.00040178386174     0.00105806674079    -0.00029051623125     0.29926573631821     0.28388300754361     0.41685125613818
                 280     0.00064989087405    -0.00101872485787     0.00134610450129     0.29848595354165     0.28388026274716     0.41763378371119
                 281    -0.00007354240047     0.00159213775569     0.00051020399663     0.29336768881796     0.28976557152330     0.41686673965874
                 282    -0.00083910959384     0.00060238952007    -0.00039226213460     0.29764686617214     0.28650940455954     0.41584372926832
                 283    -0.00001344130733     0.00047429066691    -0.00050353828834     0.29443449104284     0.28966177155515     0.41590373740201
                 284    -0.00019341193571     0.00065826262499    -0.00071597705832     0.29286852247267     0.29056803797500     0.41656343955233
                 285    -0.00075532582844    -0.00325327419932    -0.00042031228457     0.29670420840775     0.28615907572507     0.41713671586718
                 286     0.00007398831739     0.00007278762938     0.00034983071424     0.29721608219629     0.28660196974331     0.41618194806040
                 287     0.00028319244272    -0.00242281067797    -0.00176224016339     0.29490379648798     0.28992578955917     0.41517041395285
                 288     0.00049982933213     0.00234387044529     0.00007387853583     0.29720053605254     0.28870907999641     0.41409038395105
                 289    -0.00057445719674     0.00086353767393     0.00055229827217     0.29627691084498     0.28854369713517     0.41517939201985
                 290    -0.00036309596434    -0.00047879970976     0.00069351438390     0.29437962484819     0.28928789888738     0.41633247626443
                 291    -0.00005885400121    -0.00134521310831    -0.00191908384742     0.29636943564866     0.28657715662406     0.41705340772728
                 292    -0.00004979326194     0.00159252125838     0.00122647927819     0.29515919651815     0.28780052392966     0.41704027955218
                 293     0.00019603729554     0.00067570726741     0.00114478805923     0.29506590959298     0.28776710463770     0.41716698576932
                 294    -0.00067631666785    -0.00505457220338    -0.00036386271310     0.29595815483465     0.28691594553391     0.41712589963144
                 295     0.00015824788928    -0.00066473769357     0.00013115468661     0.29662989027263     0.28655048822556     0.41681962150181
                 296     0.00015206813391     0.00471045284552     0.00020615532767     0.29540788472132     0.28741473338145     0.41717738189723
                 297    -0.00065510751985     0.00076225338419    -0.00112699680586     0.29808477371456     0.28420766875939     0.41770755752605
                 298    -0.00022707827980    -0.00036607137202     0.00059678530951     0.28503014959766     0.29401647230597     0.42095337809637
                 299    -0.00038927810503     0.00264095226218    -0.00148395836400     0.32679804694115     0.25835819203945     0.41484376101940
                 300    -0.00096723327505    -0.00367350822268    -0.00003377103464     0.20811515956015     0.34042979252310     0.45145504791675
